        5400
  Built with Packmol                                             
  Li           4.128292       12.303586       25.158525
  Cl           5.824372       10.875058       26.851215
  O            6.699632       11.759098       26.073714
  O            5.406348        9.743292       26.016608
  O            4.640449       11.621982       27.290443
  O            6.550528       10.375914       28.024040
  Li         -11.181972       29.891192       32.686734
  Cl         -11.394985       29.548496       35.447126
  O          -10.994062       28.239839       34.919120
  O          -12.821076       29.767126       35.181284
  O          -10.609043       30.601092       34.793806
  O          -11.155778       29.586345       36.893954
  Li          40.629761       22.366159        4.245223
  Cl          43.309476       22.848512        3.637734
  O           43.275824       22.583133        5.080147
  O           42.817902       24.206241        3.378635
  O           42.456246       21.878731        2.942024
  O           44.687479       22.725877        3.149848
  Li          14.748636       24.907598       44.328564
  Cl          13.561292       22.836811       45.772392
  O           14.384390       22.180850       44.750463
  O           12.334844       23.353450       45.155046
  O           14.313630       23.946644       46.368000
  O           13.212336       21.866835       46.816106
  B           -5.581990       13.440390        1.730100
  B            4.373140       13.625480        1.600130
  B           -0.779350       22.183750        1.777820
  B           19.445530       10.462990        1.664250
  B            9.472500       10.652290        1.610240
  B           14.279680        1.932390        1.720330
  O           15.458000        2.704420        1.728900
  C           13.032490       -0.312910        1.684720
  C           15.027860        4.017470        1.695430
  C           15.775490        5.169840        1.685660
  C           15.095640        6.416760        1.692290
  O           18.191350       11.092800        1.739940
  C           22.010140       10.541610        1.608960
  C           17.269320       10.061380        1.730770
  C           15.899610       10.129620        1.751780
  C           15.161180        8.917410        1.720400
  O            9.558300        9.249650        1.632120
  C            8.139870       12.843580        1.616330
  C           10.915910        8.973530        1.662510
  C           11.543400        7.753660        1.687130
  C           12.965130        7.722460        1.705610
  O           -1.920390       21.360710        1.781030
  C            0.419060       24.434460        1.806130
  C           -1.430310       20.067200        1.804590
  C           -2.125570       18.880810        1.815700
  C           -1.393550       17.664880        1.780900
  O           -4.303600       12.866530        1.611640
  C           -8.131870       13.330550        1.780290
  C           -3.423010       13.933520        1.649660
  C           -2.051430       13.924150        1.591500
  C           -1.362780       15.165010        1.665450
  O            4.247750       15.027110        1.613110
  C            5.716790       11.452760        1.570880
  C            2.880400       15.265130        1.621010
  C            2.210530       16.464650        1.651330
  C            0.788260       16.447050        1.672410
  O           -5.497910       14.842320        1.832560
  C           -6.908630       11.242190        1.647310
  C           -4.145180       15.126370        1.776280
  C           -3.516250       16.347260        1.827680
  C           -2.098910       16.385490        1.761220
  O            0.398710       21.412770        1.791070
  C           -1.999010       24.452440        1.684390
  C           -0.030580       20.097210        1.791610
  C            0.714370       18.944700        1.743080
  C            0.035700       17.696850        1.727960
  O            3.112400       13.003410        1.591430
  C            6.936900       13.544920        1.620210
  C            2.198880       14.043720        1.602810
  C            0.828510       13.980080        1.613850
  C            0.094380       15.196630        1.643230
  O           19.308950        9.063850        1.617400
  C           20.788680       12.629440        1.739340
  C           17.945090        8.836260        1.670270
  C           17.270490        7.640080        1.665380
  C           15.850480        7.664860        1.693890
  O           13.139640        2.753700        1.677630
  C           15.452190       -0.333150        1.800640
  C           13.628020        4.048370        1.682720
  C           12.933080        5.230260        1.701390
  C           13.667990        6.445820        1.707550
  O           10.750880       11.239660        1.620070
  C            6.919250       10.750950        1.572160
  C           11.636870       10.172910        1.662040
  C           13.009930       10.189320        1.684860
  C           13.702720        8.946860        1.710960
  C           20.778640       11.223860        1.656080
  C            8.151090       11.434340        1.592900
  C           14.249180        0.397200        1.740340
  C           -6.898540       12.648900        1.731310
  C            5.704450       12.861570        1.596780
  C           -0.795030       23.721550        1.749510
  H           12.095480        0.240180        1.643500
  H           16.857050        5.105040        1.682920
  H           22.010500        9.454890        1.558900
  H           15.413660       11.098460        1.773740
  H            9.083430       13.385860        1.622420
  H           10.949440        6.847070        1.699720
  H            1.356370       23.883260        1.855120
  H           -3.208830       18.895880        1.833770
  H           -8.133860       14.416880        1.837990
  H           -1.531300       12.977580        1.494790
  H            4.774550       10.908030        1.566270
  H            2.771990       17.391970        1.646510
  H           -5.963990       10.701790        1.618870
  H           -4.110620       17.247620        1.925520
  H           -2.945230       23.915620        1.647780
  H            1.794850       19.014330        1.688410
  H            6.944700       14.633130        1.628910
  H            0.339890       13.012240        1.629110
  H           19.842210       13.166010        1.773740
  H           17.829200        6.712000        1.630850
  H           16.397310        0.205520        1.832830
  H           11.850160        5.211170        1.733710
  H            6.911020        9.662270        1.574300
  H           13.536660       11.136440        1.651800
  B           -6.735860       11.392000        5.057320
  B            3.246540       11.266710        4.912290
  B           -1.619290       19.948880        5.142120
  B           18.301870        8.391510        4.995080
  B            8.346140        8.280510        4.986040
  B           13.437560       -0.313890        5.076590
  O           14.584580        0.499300        5.089380
  C           12.230070       -2.557760        5.065690
  C           14.102500        1.795370        5.058060
  C           14.808670        2.974100        5.045340
  C           14.086450        4.195880        5.040660
  O           17.025320        8.977320        5.072180
  C           20.855640        8.505950        4.947700
  C           16.140210        7.913910        5.060060
  C           14.768520        7.933720        5.086830
  C           14.072730        6.696190        5.056650
  O            8.462420        6.877630        5.023190
  C            7.006810       10.458570        4.948300
  C            9.827660        6.630140        5.041590
  C           10.488450        5.425830        5.059460
  C           11.911290        5.431910        5.060670
  O           -2.792830       19.170250        5.145860
  C           -0.379120       22.191730        5.140310
  C           -2.353880       17.859130        5.168680
  C           -3.093800       16.702110        5.167010
  C           -2.405010       15.459860        5.130740
  O           -5.479420       10.775320        4.920390
  C           -9.302620       11.296400        5.099010
  C           -4.561790       11.809610        4.973260
  C           -3.191440       11.749920        4.922670
  C           -2.456790       12.962310        5.003110
  O            3.150330       12.668350        4.968510
  C            4.580240        9.077850        4.881170
  C            1.791080       12.935440        4.981160
  C            1.155180       14.149900        5.037180
  C           -0.266800       14.170180        5.043930
  O           -6.603690       12.786910        5.185480
  C           -8.068300        9.214940        4.980290
  C           -5.242130       13.025530        5.115080
  C           -4.570040       14.222430        5.172030
  C           -3.151600       14.207310        5.103360
  O           -0.472580       19.135680        5.175640
  C           -2.802090       22.209920        5.072380
  C           -0.953380       17.837970        5.170830
  C           -0.250520       16.661750        5.138300
  C           -0.977150       15.441340        5.103570
  O            1.971050       10.672120        4.889600
  C            5.806400       11.165450        4.925880
  C            1.077890       11.733050        4.925940
  C           -0.295900       11.706960        4.928890
  C           -0.997670       12.942970        4.985170
  O           18.211720        6.987320        4.943550
  C           19.620560       10.587730        5.064150
  C           16.856490        6.712630        4.995150
  C           16.221440        5.493690        4.988520
  C           14.801870        5.468320        5.030010
  O           12.264760        0.462320        5.049360
  C           14.651890       -2.574930        5.138030
  C           12.702680        1.775110        5.048220
  C           11.966830        2.934270        5.060730
  C           12.655980        4.176090        5.061470
  O            9.612390        8.892930        4.989460
  C            5.781360        8.371700        4.901920
  C           10.518290        7.846160        5.026870
  C           11.889610        7.899190        5.027870
  C           12.614650        6.676570        5.054910
  C           19.619120        9.180620        4.991730
  C            7.016450        9.049830        4.943680
  C           13.445540       -1.848210        5.098210
  C           -8.065610       10.622020        5.057120
  C            4.571250       10.487390        4.900180
  C           -1.596620       21.482750        5.111200
  H           11.293270       -2.004080        5.037440
  H           15.892400        2.945340        5.044870
  H           20.865670        7.418600        4.904800
  H           14.251640        8.885810        5.117950
  H            7.950850       10.999510        4.958810
  H            9.919350        4.503970        5.090980
  H            0.559140       21.640150        5.163730
  H           -4.176160       16.759150        5.174840
  H           -9.314650       12.383390        5.143390
  H           -2.701080       10.787590        4.835260
  H            3.634930        8.538970        4.866780
  H            1.742800       15.060800        5.064150
  H           -7.120090        8.681780        4.951110
  H           -5.126650       15.145140        5.282790
  H           -3.747400       21.670410        5.063410
  H            0.832580       16.691400        5.115010
  H            5.819510       12.253880        4.916310
  H           -0.813090       10.754460        4.915040
  H           18.671690       11.119720        5.094400
  H           16.810940        4.585320        4.940740
  H           15.596230       -2.033990        5.148540
  H           10.884710        2.880150        5.088640
  H            5.768870        7.284040        4.901920
  H           12.385000        8.862280        4.979490
  B           -7.809180        9.432200        8.422690
  B            2.145940        9.617280        8.292720
  B           -3.006540       18.175560        8.470410
  B           17.218330        6.454800        8.356830
  B            7.245310        6.644090        8.302820
  B           12.052480       -2.075810        8.412920
  O           13.230810       -1.303770        8.421480
  C           10.805300       -4.321100        8.377310
  C           12.800670        0.009280        8.388020
  C           13.548300        1.161650        8.378250
  C           12.868450        2.408570        8.384870
  O           15.964160        7.084610        8.432530
  C           19.782950        6.533420        8.301550
  C           15.042120        6.053180        8.423360
  C           13.672420        6.121430        8.444370
  C           12.933990        4.909220        8.412980
  O            7.331110        5.241450        8.324710
  C            5.912680        8.835390        8.308910
  C            8.688710        4.965340        8.355090
  C            9.316210        3.745470        8.379720
  C           10.737930        3.714270        8.398190
  O           -4.147590       17.352520        8.473620
  C           -1.808130       20.426270        8.498710
  C           -3.657500       16.059010        8.497180
  C           -4.352760       14.872610        8.508290
  C           -3.620740       13.656690        8.473480
  O           -6.530800        8.858340        8.304230
  C          -10.359060        9.322350        8.472880
  C           -5.650210        9.925330        8.342240
  C           -4.278620        9.915950        8.284080
  C           -3.589970       11.156820        8.358040
  O            2.020560       11.018920        8.305700
  C            3.489600        7.444560        8.263470
  C            0.653200       11.256940        8.313600
  C           -0.016660       12.456450        8.343920
  C           -1.438930       12.438860        8.365000
  O           -7.725100       10.834130        8.525150
  C           -9.135830        7.233990        8.339900
  C           -6.372370       11.118170        8.468870
  C           -5.743440       12.339070        8.520270
  C           -4.326110       12.377300        8.453810
  O           -1.828490       17.404580        8.483660
  C           -4.226200       20.444240        8.376980
  C           -2.257780       16.089020        8.484190
  C           -1.512820       14.936510        8.435670
  C           -2.191490       13.688660        8.420550
  O            0.885210        8.995220        8.284020
  C            4.709710        9.536730        8.312790
  C           -0.028320       10.035520        8.295390
  C           -1.398680        9.971880        8.306440
  C           -2.132810       11.188440        8.335820
  O           17.081760        5.055650        8.309980
  C           18.561490        8.621250        8.431920
  C           15.717900        4.828060        8.362860
  C           15.043290        3.631890        8.357970
  C           13.623290        3.656670        8.386480
  O           10.912440       -1.254500        8.370220
  C           13.224990       -4.341350        8.493230
  C           11.400830        0.040170        8.375300
  C           10.705890        1.222070        8.393980
  C           11.440800        2.437620        8.400130
  O            8.523690        7.231470        8.312660
  C            4.692060        6.742760        8.264740
  C            9.409680        6.164710        8.354620
  C           10.782740        6.181130        8.377450
  C           11.475530        4.938670        8.403550
  C           18.551450        7.215660        8.348670
  C            5.923900        7.426140        8.285490
  C           12.021980       -3.610990        8.432930
  C           -9.125730        8.640710        8.423890
  C            3.477260        8.853370        8.289370
  C           -3.022230       19.713360        8.442100
  H            9.868280       -3.768010        8.336090
  H           14.629860        1.096850        8.375500
  H           19.783310        5.446700        8.251490
  H           13.186460        7.090270        8.466320
  H            6.856240        9.377670        8.315000
  H            8.722240        2.838870        8.392300
  H           -0.870830       19.875070        8.547700
  H           -5.436020       14.887690        8.526360
  H          -10.361050       10.408690        8.530570
  H           -3.758490        8.969390        8.187380
  H            2.547360        6.899830        8.258850
  H            0.544790       13.383780        8.339100
  H           -8.191180        6.693590        8.311460
  H           -6.337820       13.239430        8.618110
  H           -5.172420       19.907430        8.340370
  H           -0.432340       15.006140        8.380990
  H            4.717510       10.624930        8.321500
  H           -1.887300        9.004040        8.321700
  H           17.615010        9.157820        8.466320
  H           15.602010        2.703810        8.323440
  H           14.170120       -3.802670        8.525420
  H            9.622970        1.202970        8.426300
  H            4.683830        5.654070        8.266880
  H           11.309470        7.128240        8.344380
  B           -8.963050        7.383810       11.749910
  B            1.019340        7.258520       11.604880
  B           -3.846480       15.940690       11.834700
  B           16.074670        4.383310       11.687670
  B            6.118950        4.272320       11.678630
  B           11.210370       -4.322080       11.769180
  O           12.357390       -3.508890       11.781960
  C           10.002880       -6.565950       11.758270
  C           11.875300       -2.212820       11.750640
  C           12.581480       -1.034100       11.737930
  C           11.859260        0.187690       11.733240
  O           14.798130        4.969130       11.764760
  C           18.628440        4.497750       11.640280
  C           13.913020        3.905720       11.752650
  C           12.541330        3.925520       11.779420
  C           11.845540        2.688000       11.749240
  O            6.235230        2.869440       11.715770
  C            4.779620        6.450370       11.640880
  C            7.600470        2.621940       11.734180
  C            8.261260        1.417640       11.752050
  C            9.684100        1.423720       11.753250
  O           -5.020020       15.162060       11.838450
  C           -2.606310       18.183540       11.832890
  C           -4.581070       13.850940       11.861270
  C           -5.320990       12.693910       11.859600
  C           -4.632200       11.451670       11.823320
  O           -7.706610        6.767120       11.612980
  C          -11.529820        7.288210       11.791600
  C           -6.788990        7.801410       11.665850
  C           -5.418630        7.741730       11.615250
  C           -4.683990        8.954120       11.695700
  O            0.923140        8.660160       11.661100
  C            2.353050        5.069660       11.573760
  C           -0.436120        8.927250       11.673740
  C           -1.072010       10.141710       11.729760
  C           -2.493990       10.161990       11.736520
  O           -8.830880        8.778720       11.878070
  C          -10.295490        5.206740       11.672870
  C           -7.469320        9.017330       11.807660
  C           -6.797230       10.214230       11.864620
  C           -5.378800       10.199120       11.795950
  O           -2.699770       15.127480       11.868230
  C           -5.029290       18.201720       11.764960
  C           -3.180570       13.829780       11.863410
  C           -2.477710       12.653560       11.830890
  C           -3.204350       11.433150       11.796150
  O           -0.256140        6.663930       11.582190
  C            3.579210        7.157260       11.618460
  C           -1.149300        7.724860       11.618530
  C           -2.523090        7.698760       11.621480
  C           -3.224860        8.934780       11.677760
  O           15.984530        2.979130       11.636130
  C           17.393370        6.579530       11.756730
  C           14.629300        2.704430       11.687730
  C           13.994250        1.485500       11.681110
  C           12.574680        1.460120       11.722600
  O           10.037570       -3.545870       11.741940
  C           12.424690       -6.583120       11.830620
  C           10.475490       -2.233090       11.740800
  C            9.739640       -1.073920       11.753320
  C           10.428790        0.167900       11.754060
  O            7.385200        4.884740       11.682040
  C            3.554170        4.363510       11.594500
  C            8.291100        3.837970       11.719460
  C            9.662420        3.890990       11.720460
  C           10.387460        2.668380       11.747500
  C           17.391920        5.172420       11.684320
  C            4.789260        5.041640       11.636270
  C           11.218340       -5.856400       11.790800
  C          -10.292800        6.613820       11.749710
  C            2.344060        6.479190       11.592760
  C           -3.823810       17.474560       11.803780
  H            9.066080       -6.012270       11.730030
  H           13.665200       -1.062850       11.737460
  H           18.638470        3.410410       11.597380
  H           12.024440        4.877620       11.810540
  H            5.723660        6.991310       11.651390
  H            7.692160        0.495770       11.783570
  H           -1.668050       17.631950       11.856320
  H           -6.403350       12.750960       11.867430
  H          -11.541840        8.375190       11.835970
  H           -4.928270        6.779390       11.527850
  H            1.407740        4.530780       11.559370
  H           -0.484390       11.052610       11.756730
  H           -9.347280        4.673590       11.643700
  H           -7.353850       11.136950       11.975380
  H           -5.974590       17.662220       11.756000
  H           -1.394610       12.683200       11.807600
  H            3.592320        8.245680       11.608890
  H           -3.040280        6.746270       11.607620
  H           16.444500        7.111530       11.786980
  H           14.583750        0.577120       11.633320
  H           13.369040       -6.042180       11.841130
  H            8.657520       -1.128040       11.781230
  H            3.541680        3.275850       11.594500
  H           10.157810        4.854090       11.672070
  B          -10.036380        5.424000       15.115270
  B           -0.081250        5.609090       14.985300
  B           -5.233730       14.167360       15.162990
  B           14.991140        2.446600       15.049420
  B            5.018120        2.635900       14.995410
  B            9.825290       -6.084000       15.105500
  O           11.003620       -5.311970       15.114070
  C            8.578100       -8.329300       15.069900
  C           10.573480       -3.998920       15.080610
  C           11.321100       -2.846550       15.070830
  C           10.641260       -1.599620       15.077460
  O           13.736970        3.076420       15.125110
  C           17.555760        2.525230       14.994140
  C           12.814930        2.044990       15.115940
  C           11.445220        2.113240       15.136960
  C           10.706800        0.901020       15.105570
  O            5.103910        1.233260       15.017290
  C            3.685490        4.827200       15.001500
  C            6.461520        0.957140       15.047680
  C            7.089020       -0.262720       15.072310
  C            8.510740       -0.293930       15.090780
  O           -6.374780       13.344330       15.166200
  C           -4.035320       16.418070       15.191300
  C           -5.884690       12.050810       15.189760
  C           -6.579950       10.864420       15.200870
  C           -5.847930        9.648500       15.166070
  O           -8.757990        4.850150       14.996810
  C          -12.586250        5.314160       15.165470
  C           -7.877400        5.917140       15.034830
  C           -6.505820        5.907760       14.976670
  C           -5.817170        7.148630       15.050620
  O           -0.206630        7.010730       14.998290
  C            1.262410        3.436370       14.956060
  C           -1.573990        7.248750       15.006180
  C           -2.243850        8.448260       15.036500
  C           -3.666120        8.430660       15.057580
  O           -9.952290        6.825940       15.217740
  C          -11.363020        3.225800       15.032490
  C           -8.599560        7.109980       15.161450
  C           -7.970630        8.330870       15.212850
  C           -6.553300        8.369110       15.146390
  O           -4.055680       13.396390       15.176240
  C           -6.453390       16.436050       15.069560
  C           -4.484970       12.080830       15.176780
  C           -3.740020       10.928310       15.128260
  C           -4.418680        9.680460       15.113130
  O           -1.341990        4.987030       14.976600
  C            2.482520        5.528530       15.005380
  C           -2.255510        6.027330       14.987980
  C           -3.625870        5.963690       14.999020
  C           -4.360010        7.180250       15.028400
  O           14.854570        1.047460       15.002570
  C           16.334290        4.613060       15.124510
  C           13.490710        0.819870       15.055440
  C           12.816100       -0.376300       15.050560
  C           11.396100       -0.351520       15.079070
  O            8.685250       -5.262690       15.062800
  C           10.997800       -8.349540       15.185810
  C            9.173640       -3.968020       15.067890
  C            8.478700       -2.786120       15.086560
  C            9.213610       -1.570570       15.092720
  O            6.296500        3.223280       15.005250
  C            2.464870        2.734560       14.957330
  C            7.182490        2.156520       15.047210
  C            8.555550        2.172940       15.070030
  C            9.248340        0.930480       15.096130
  C           16.324250        3.207470       15.041250
  C            3.696700        3.417950       14.978080
  C            9.794790       -7.619180       15.125510
  C          -11.352920        4.632520       15.116480
  C            1.250070        4.845180       14.981960
  C           -5.249420       15.705160       15.134680
  H            7.641090       -7.776210       15.028670
  H           12.402670       -2.911340       15.068090
  H           17.556120        1.438510       14.944080
  H           10.959270        3.082070       15.158910
  H            4.629040        5.369470       15.007590
  H            6.495050       -1.169320       15.084890
  H           -3.098020       15.866880       15.240290
  H           -7.663210       10.879490       15.218940
  H          -12.588240        6.400490       15.223160
  H           -5.985680        4.961200       14.879960
  H            0.320170        2.891640       14.951440
  H           -1.682400        9.375580       15.031680
  H          -10.418380        2.685400       15.004040
  H           -8.565010        9.231240       15.310700
  H           -7.399610       15.899230       15.032950
  H           -2.659540       10.997940       15.073580
  H            2.490310        6.616740       15.014080
  H           -4.114490        4.995850       15.014280
  H           15.387820        5.149630       15.158910
  H           13.374820       -1.304380       15.016020
  H           11.942930       -7.810860       15.218000
  H            7.395780       -2.805220       15.118890
  H            2.456640        1.645880       14.959470
  H            9.082270        3.120050       15.036970
  B          -11.190250        3.375610       18.442490
  B           -1.207850        3.250330       18.297460
  B           -6.073670       11.932490       18.527290
  B           13.847480        0.375120       18.380250
  B            3.891760        0.264130       18.371220
  B            8.983180       -8.330280       18.461770
  O           10.130200       -7.517080       18.474550
  C            7.775690      -10.574150       18.450860
  C            9.648110       -6.221010       18.443230
  C           10.354290       -5.042290       18.430510
  C            9.632070       -3.820510       18.425830
  O           12.570940        0.960930       18.457350
  C           16.401250        0.489560       18.332870
  C           11.685830       -0.102470       18.445240
  C           10.314130       -0.082670       18.472010
  C            9.618340       -1.320190       18.441820
  O            4.008040       -1.138750       18.408360
  C            2.552420        2.442180       18.333470
  C            5.373280       -1.386250       18.426770
  C            6.034070       -2.590560       18.444630
  C            7.456910       -2.584480       18.445840
  O           -7.247210       11.153870       18.531040
  C           -4.833500       14.175340       18.525480
  C           -6.808260        9.842750       18.553860
  C           -7.548180        8.685720       18.552180
  C           -6.859390        7.443470       18.515910
  O           -9.933810        2.758930       18.305560
  C          -13.757010        3.280010       18.484190
  C           -9.016180        3.793220       18.358430
  C           -7.645820        3.733540       18.307840
  C           -6.911180        4.945930       18.388280
  O           -1.304060        4.651970       18.353680
  C            0.125860        1.061460       18.266340
  C           -2.663310        4.919050       18.366330
  C           -3.299200        6.133520       18.422350
  C           -4.721180        6.153800       18.429110
  O          -11.058080        4.770520       18.570660
  C          -12.522680        1.198550       18.365460
  C           -9.696510        5.009140       18.500250
  C           -9.024430        6.206040       18.557200
  C           -7.605990        6.190920       18.488540
  O           -4.926960       11.119290       18.560820
  C           -7.256480       14.193530       18.457550
  C           -5.407760        9.821580       18.556000
  C           -4.704900        8.645370       18.523470
  C           -5.431540        7.424950       18.488740
  O           -2.483330        2.655730       18.274780
  C            1.352020        3.149070       18.311050
  C           -3.376490        3.716660       18.311120
  C           -4.750290        3.690570       18.314060
  C           -5.452050        4.926590       18.370350
  O           13.757340       -1.029060       18.328720
  C           15.166170        2.571340       18.449320
  C           12.402110       -1.303760       18.380320
  C           11.767050       -2.522700       18.373690
  C           10.347480       -2.548070       18.415190
  O            7.810380       -7.554060       18.434530
  C           10.197500      -10.591320       18.523210
  C            8.248300       -6.241280       18.433390
  C            7.512440       -5.082110       18.445910
  C            8.201600       -3.840300       18.446640
  O            5.158000        0.876540       18.374630
  C            1.326970        0.355320       18.287090
  C            6.063910       -0.170220       18.412040
  C            7.435230       -0.117200       18.413050
  C            8.160270       -1.339820       18.440080
  C           15.164730        1.164230       18.376910
  C            2.562070        1.033440       18.328850
  C            8.991150       -9.864590       18.483380
  C          -12.520000        2.605630       18.442290
  C            0.116870        2.471000       18.285350
  C           -6.051000       13.466360       18.496370
  H            6.838890      -10.020460       18.422620
  H           11.438010       -5.071050       18.430040
  H           16.411280       -0.597780       18.289970
  H            9.797250        0.869430       18.503130
  H            3.496470        2.983120       18.343980
  H            5.464970       -3.512420       18.476160
  H           -3.895250       13.623760       18.548910
  H           -8.630550        8.742760       18.560010
  H          -13.769040        4.367000       18.528560
  H           -7.155460        2.771200       18.220430
  H           -0.819450        0.522590       18.251960
  H           -2.711580        7.044420       18.449320
  H          -11.574470        0.665390       18.336280
  H           -9.581040        7.128750       18.667970
  H           -8.201780       13.654020       18.448580
  H           -3.621800        8.675010       18.500180
  H            1.365120        4.237490       18.301480
  H           -5.267480        2.738070       18.300210
  H           14.217300        3.103330       18.479570
  H           12.356550       -3.431070       18.325910
  H           11.141850      -10.050380       18.533710
  H            6.430330       -5.136230       18.473810
  H            1.314490       -0.732350       18.287090
  H            7.930620        0.845890       18.364660
  B          -12.263570        1.415810       21.807860
  B           -2.308440        1.600900       21.677890
  B           -7.460920       10.159170       21.855580
  B           12.763950       -1.561590       21.742010
  B            2.790920       -1.372290       21.688000
  B            7.598100      -10.092190       21.798090
  O            8.776430       -9.320160       21.806660
  C            6.350910      -12.337490       21.762480
  C            8.346280       -8.007110       21.773190
  C            9.093910       -6.854740       21.763420
  C            8.414060       -5.607820       21.770050
  O           11.509780       -0.931780       21.817700
  C           15.328570       -1.482970       21.686720
  C           10.587740       -1.963200       21.808530
  C            9.218030       -1.894960       21.829540
  C            8.479610       -3.107170       21.798160
  O            2.876720       -2.774930       21.709880
  C            1.458300        0.819000       21.694090
  C            4.234330       -3.051050       21.740270
  C            4.861830       -4.270920       21.764890
  C            6.283550       -4.302120       21.783370
  O           -8.601970        9.336130       21.858790
  C           -6.262510       12.409880       21.883890
  C           -8.111880        8.042620       21.882350
  C           -8.807140        6.856230       21.893460
  C           -8.075130        5.640300       21.858660
  O          -10.985180        0.841950       21.689400
  C          -14.813440        1.305970       21.858050
  C          -10.104590        1.908940       21.727420
  C           -8.733010        1.899570       21.669260
  C           -8.044360        3.140430       21.743210
  O           -2.433820        3.002530       21.690870
  C           -0.964790       -0.571820       21.648640
  C           -3.801180        3.240550       21.698770
  C           -4.471040        4.440070       21.729090
  C           -5.893310        4.422470       21.750170
  O          -12.179490        2.817740       21.910320
  C          -13.590210       -0.782390       21.725070
  C          -10.826760        3.101790       21.854040
  C          -10.197820        4.322680       21.905440
  C           -8.780490        4.360910       21.838980
  O           -6.282870        9.388190       21.868830
  C           -8.680580       12.427860       21.762150
  C           -6.712160        8.072630       21.869370
  C           -5.967210        6.920120       21.820840
  C           -6.645870        5.672270       21.805720
  O           -3.569180        0.978830       21.669190
  C            0.255330        1.520340       21.697970
  C           -4.482700        2.019140       21.680570
  C           -5.853060        1.955500       21.691610
  C           -6.587200        3.172050       21.720990
  O           12.627370       -2.960730       21.695160
  C           14.107100        0.604860       21.817100
  C           11.263510       -3.188320       21.748030
  C           10.588910       -4.384490       21.743140
  C            9.168900       -4.359720       21.771650
  O            6.458060       -9.270880       21.755390
  C            8.770610      -12.357730       21.878400
  C            6.946450       -7.976210       21.760480
  C            6.251510       -6.794320       21.779150
  C            6.986410       -5.578760       21.785310
  O            4.069310       -0.784920       21.697830
  C            0.237680       -1.273630       21.649920
  C            4.955300       -1.851670       21.739800
  C            6.328360       -1.835260       21.762620
  C            7.021150       -3.077720       21.788720
  C           14.097060       -0.800720       21.733840
  C            1.469510       -0.590240       21.670660
  C            7.567600      -11.627380       21.818100
  C          -13.580110        0.624320       21.809060
  C           -0.977120        0.836990       21.674540
  C           -7.476610       11.696970       21.827270
  H            5.413900      -11.784400       21.721260
  H           10.175480       -6.919540       21.760680
  H           15.328930       -2.569690       21.636660
  H            8.732080       -0.926120       21.851500
  H            2.401850        1.361280       21.700180
  H            4.267860       -5.177510       21.777480
  H           -5.325210       11.858680       21.932880
  H           -9.890410        6.871300       21.911530
  H          -14.815430        2.392300       21.915740
  H           -8.212870        0.953000       21.572550
  H           -1.907030       -1.116550       21.644030
  H           -3.909590        5.367390       21.724270
  H          -12.645570       -1.322790       21.696630
  H          -10.792200        5.223040       22.003280
  H           -9.626800       11.891040       21.725540
  H           -4.886730        6.989750       21.766170
  H            0.263120        2.608550       21.706670
  H           -6.341680        0.987660       21.706870
  H           13.160630        1.141430       21.851500
  H           11.147620       -5.312580       21.708610
  H            9.715740      -11.819050       21.910590
  H            5.168580       -6.813410       21.811470
  H            0.229450       -2.362310       21.652060
  H            6.855080       -0.888140       21.729560
  B          -13.417440       -0.632580       25.135080
  B           -3.435040       -0.757870       24.990050
  B           -8.300870        7.924300       25.219870
  B           11.620290       -3.633070       25.072840
  B            1.664570       -3.744070       25.063800
  B            6.755990      -12.338470       25.154350
  O            7.903000      -11.525280       25.167140
  C            5.548500      -14.582340       25.143450
  C            7.420920      -10.229210       25.135820
  C            8.127090       -9.050480       25.123100
  C            7.404880       -7.828700       25.118420
  O           10.343750       -3.047260       25.149940
  C           14.174060       -3.518630       25.025460
  C            9.458630       -4.110670       25.137820
  C            8.086940       -4.090860       25.164590
  C            7.391150       -5.328390       25.134410
  O            1.780840       -5.146950       25.100950
  C            0.325230       -1.566010       25.026060
  C            3.146080       -5.394440       25.119350
  C            3.806870       -6.598750       25.137220
  C            5.229710       -6.592670       25.138430
  O           -9.474400        7.145670       25.223620
  C           -7.060690       10.167150       25.218070
  C           -9.035460        5.834550       25.246440
  C           -9.775380        4.677530       25.244770
  C           -9.086590        3.435280       25.208500
  O          -12.161000       -1.249260       24.998150
  C          -15.984200       -0.728180       25.176770
  C          -11.243370       -0.214970       25.051020
  C           -9.873020       -0.274660       25.000420
  C           -9.138370        0.937730       25.080870
  O           -3.531250        0.643770       25.046270
  C           -2.101330       -2.946730       24.958930
  C           -4.890500        0.910860       25.058920
  C           -5.526400        2.125330       25.114930
  C           -6.948380        2.145600       25.121690
  O          -13.285270        0.762330       25.263240
  C          -14.749870       -2.809640       25.058050
  C          -11.923700        1.000950       25.192840
  C          -11.251620        2.197850       25.249790
  C           -9.833180        2.182730       25.181120
  O           -7.154160        7.111100       25.253400
  C           -9.483670       10.185340       25.150140
  C           -7.634960        5.813390       25.248590
  C           -6.932100        4.637170       25.216060
  C           -7.658730        3.416760       25.181330
  O           -4.710520       -1.352460       24.967360
  C           -0.875180       -0.859130       25.003640
  C           -5.603680       -0.291530       25.003700
  C           -6.977480       -0.317620       25.006650
  C           -7.679250        0.918390       25.062930
  O           11.530140       -5.037260       25.021310
  C           12.938980       -1.436850       25.141910
  C           10.174920       -5.311950       25.072910
  C            9.539860       -6.530890       25.066280
  C            8.120290       -6.556260       25.107770
  O            5.583190      -11.562260       25.127120
  C            7.970310      -14.599510       25.215790
  C            6.021100      -10.249470       25.125980
  C            5.285250       -9.090310       25.138490
  C            5.974400       -7.848490       25.139230
  O            2.930810       -3.131650       25.067220
  C           -0.900220       -3.652880       24.979680
  C            3.836710       -4.178420       25.104630
  C            5.208040       -4.125390       25.105630
  C            5.933080       -5.348010       25.132670
  C           12.937540       -2.843960       25.069490
  C            0.334870       -2.974750       25.021440
  C            6.763960      -13.872790       25.175970
  C          -14.747190       -1.402560       25.134880
  C           -2.110330       -1.537190       24.977940
  C           -8.278190        9.458170       25.188950
  H            4.611690      -14.028660       25.115200
  H            9.210820       -9.079240       25.122630
  H           14.184090       -4.605980       24.982560
  H            7.570060       -3.138760       25.195710
  H            1.269280       -1.025070       25.036560
  H            3.237770       -7.520610       25.168740
  H           -6.122440        9.615570       25.241490
  H          -10.857740        4.734570       25.252600
  H          -15.996230        0.358810       25.221150
  H           -9.382650       -1.236990       24.913020
  H           -3.046650       -3.485610       24.944540
  H           -4.938770        3.036220       25.141910
  H          -13.801660       -3.342800       25.028870
  H          -11.808230        3.120560       25.360550
  H          -10.428980        9.645830       25.141170
  H           -5.848990        4.666820       25.192770
  H           -0.862070        0.229300       24.994070
  H           -7.494670       -1.270120       24.992800
  H           11.990110       -0.904860       25.172160
  H           10.129360       -7.439260       25.018490
  H            8.914650      -14.058570       25.226300
  H            4.203140       -9.144430       25.166400
  H           -0.912710       -4.740540       24.979680
  H            5.703430       -3.162300       25.057240
  B          -14.490760       -2.592380       28.500450
  B           -4.535630       -2.407290       28.370480
  B           -9.688120        6.150980       28.548160
  B           10.536760       -5.569780       28.434590
  B            0.563730       -5.380490       28.380580
  B            5.370910      -14.100390       28.490680
  O            6.549230      -13.328350       28.499240
  C            4.123720      -16.345680       28.455070
  C            6.119090      -12.015300       28.465780
  C            6.866720      -10.862930       28.456010
  C            6.186870       -9.616010       28.462630
  O            9.282580       -4.939970       28.510280
  C           13.101370       -5.491160       28.379310
  C            8.360550       -5.971390       28.501120
  C            6.990840       -5.903150       28.522130
  C            6.252410       -7.115360       28.490740
  O            0.649530       -6.783130       28.402470
  C           -0.768900       -3.189190       28.386670
  C            2.007140       -7.059240       28.432850
  C            2.634630       -8.279110       28.457480
  C            4.056360       -8.310310       28.475950
  O          -10.829160        5.327940       28.551380
  C           -8.489700        8.401690       28.576470
  C          -10.339080        4.034430       28.574940
  C          -11.034340        2.848030       28.586040
  C          -10.302320        1.632110       28.551240
  O          -13.212370       -3.166240       28.381990
  C          -17.040640       -2.702230       28.550640
  C          -12.331780       -2.099250       28.420000
  C          -10.960200       -2.108630       28.361840
  C          -10.271550       -0.867760       28.435800
  O           -4.661020       -1.005660       28.383460
  C           -3.191980       -4.580020       28.341230
  C           -6.028370       -0.767640       28.391360
  C           -6.698230        0.431870       28.421670
  C           -8.120510        0.414280       28.442760
  O          -14.406680       -1.190450       28.602910
  C          -15.817400       -4.790590       28.417660
  C          -13.053950       -0.906410       28.546630
  C          -12.425010        0.314490       28.598020
  C          -11.007680        0.352720       28.531570
  O           -8.510060        5.380000       28.561420
  C          -10.907780        8.419660       28.454740
  C           -8.939350        4.064440       28.561950
  C           -8.194400        2.911930       28.513430
  C           -8.873070        1.664080       28.498310
  O           -5.796370       -3.029360       28.361780
  C           -1.971870       -2.487850       28.390550
  C           -6.709890       -1.989060       28.373150
  C           -8.080260       -2.052700       28.384200
  C           -8.814390       -0.836140       28.413580
  O           10.400180       -6.968930       28.387740
  C           11.879910       -3.403330       28.509680
  C            9.036320       -7.196520       28.440610
  C            8.361720       -8.392690       28.435730
  C            6.941710       -8.367910       28.464240
  O            4.230870      -13.279080       28.447980
  C            6.543420      -16.365930       28.570990
  C            4.719250      -11.984410       28.453060
  C            4.024320      -10.802510       28.471740
  C            4.759220       -9.586960       28.477890
  O            1.842110       -4.793110       28.390420
  C           -1.989510       -5.281820       28.342500
  C            2.728100       -5.859860       28.432380
  C            4.101160       -5.843450       28.455200
  C            4.793950       -7.085910       28.481310
  C           11.869870       -4.808920       28.426430
  C           -0.757680       -4.598440       28.363250
  C            5.340410      -15.635570       28.510690
  C          -15.807300       -3.383870       28.501650
  C           -3.204320       -3.171210       28.367130
  C           -9.703800        7.688780       28.519860
  H            3.186710      -15.792590       28.413840
  H            7.948280      -10.927730       28.453260
  H           13.101740       -6.577880       28.329250
  H            6.504890       -4.934310       28.544080
  H            0.174660       -2.646910       28.392760
  H            2.040670       -9.185710       28.470060
  H           -7.552400        7.850490       28.625460
  H          -12.117600        2.863110       28.604110
  H          -17.042630       -1.615890       28.608330
  H          -10.440070       -3.055190       28.265140
  H           -4.134220       -5.124740       28.336610
  H           -6.136780        1.359200       28.416860
  H          -14.872760       -5.330990       28.389220
  H          -13.019390        1.214850       28.695870
  H          -11.853990        7.882850       28.418130
  H           -7.113920        2.981560       28.458750
  H           -1.964070       -1.399650       28.399250
  H           -8.568880       -3.020540       28.399460
  H           10.933440       -2.866760       28.544080
  H            8.920430       -9.320770       28.401200
  H            7.488550      -15.827250       28.603180
  H            2.941390      -10.821610       28.504060
  H           -1.997750       -6.370510       28.344640
  H            4.627890       -4.896340       28.422140
  B          -15.644630       -4.640770       31.827670
  B           -5.662230       -4.766060       31.682640
  B          -10.528060        3.916110       31.912460
  B            9.393100       -7.641270       31.765430
  B           -0.562630       -7.752260       31.756390
  B            4.528790      -16.346660       31.846940
  O            5.675810      -15.533470       31.859720
  C            3.321300      -18.590530       31.836030
  C            5.193730      -14.237400       31.828400
  C            5.899900      -13.058680       31.815690
  C            5.177680      -11.836890       31.811000
  O            8.116560       -7.055450       31.842520
  C           11.946870       -7.526830       31.718040
  C            7.231440       -8.118860       31.830410
  C            5.859750       -8.099060       31.857180
  C            5.163960       -9.336580       31.827000
  O           -0.446350       -9.155140       31.793530
  C           -1.901960       -5.574210       31.718640
  C            0.918890       -9.402640       31.811940
  C            1.579680      -10.606940       31.829810
  C            3.002520      -10.600860       31.831010
  O          -11.701600        3.137480       31.916210
  C           -9.287890        6.158960       31.910650
  C          -11.262650        1.826360       31.939030
  C          -12.002570        0.669330       31.937360
  C          -11.313780       -0.572910       31.901080
  O          -14.388190       -5.257460       31.690740
  C          -18.211390       -4.736370       31.869360
  C          -13.470560       -4.223170       31.743610
  C          -12.100210       -4.282850       31.693010
  C          -11.365560       -3.070460       31.773460
  O           -5.758440       -3.364420       31.738860
  C           -4.328520       -6.954920       31.651520
  C           -7.117690       -3.097330       31.751500
  C           -7.753590       -1.882870       31.807520
  C           -9.175570       -1.862590       31.814280
  O          -15.512460       -3.245860       31.955830
  C          -16.977070       -6.817840       31.750630
  C          -14.150900       -3.007250       31.885420
  C          -13.478810       -1.810350       31.942380
  C          -12.060370       -1.825460       31.873710
  O           -9.381350        3.102900       31.945990
  C          -11.710860        6.177140       31.842720
  C           -9.862150        1.805200       31.941170
  C           -9.159290        0.628980       31.908650
  C           -9.885920       -0.591430       31.873910
  O           -6.937720       -5.360650       31.659950
  C           -3.102370       -4.867320       31.696220
  C           -7.830880       -4.299720       31.696290
  C           -9.204670       -4.325820       31.699240
  C           -9.906440       -3.089800       31.755520
  O            9.302950       -9.045450       31.713890
  C           10.711790       -5.445050       31.834490
  C            7.947720       -9.320150       31.765490
  C            7.312670      -10.539080       31.758870
  C            5.893100      -10.564460       31.800360
  O            3.355990      -15.570450       31.819700
  C            5.743120      -18.607700       31.908380
  C            3.793910      -14.257670       31.818560
  C            3.058060      -13.098500       31.831080
  C            3.747210      -11.856680       31.831820
  O            0.703620       -7.139840       31.759800
  C           -3.127410       -7.661070       31.672260
  C            1.609520       -8.186610       31.797210
  C            2.980840       -8.133590       31.798220
  C            3.705880       -9.356200       31.825260
  C           10.710350       -6.852160       31.762080
  C           -1.892320       -6.982940       31.714030
  C            4.536770      -17.880980       31.868560
  C          -16.974380       -5.410750       31.827470
  C           -4.337520       -5.545390       31.670520
  C          -10.505380        5.449980       31.881540
  H            2.384500      -18.036850       31.807790
  H            6.983630      -13.087430       31.815220
  H           11.956900       -8.614170       31.675140
  H            5.342870       -7.146960       31.888300
  H           -0.957920       -5.033270       31.729150
  H            1.010580      -11.528810       31.861330
  H           -8.349630        5.607370       31.934080
  H          -13.084930        0.726380       31.945190
  H          -18.223420       -3.649390       31.913730
  H          -11.609840       -5.245190       31.605610
  H           -5.273840       -7.493800       31.637130
  H           -7.165960       -0.971970       31.834490
  H          -16.028860       -7.350990       31.721450
  H          -14.035420       -0.887630       32.053140
  H          -12.656170        5.637640       31.833760
  H           -8.076180        0.658620       31.885360
  H           -3.089260       -3.778900       31.686650
  H           -9.721860       -5.278310       31.685380
  H            9.762920       -4.913050       31.864740
  H            7.902170      -11.447450       31.711080
  H            6.687460      -18.066760       31.918890
  H            1.975940      -13.152620       31.858990
  H           -3.139900       -8.748730       31.672260
  H            3.476230       -7.170490       31.749830
  B          -16.717950       -6.600580       35.193030
  B           -6.762820       -6.415490       35.063060
  B          -11.915310        2.142780       35.240750
  B            8.309560       -9.577980       35.127180
  B           -1.663460       -9.388680       35.073170
  B            3.143710      -18.108580       35.183260
  O            4.322040      -17.336540       35.191830
  C            1.896530      -20.353870       35.147660
  C            3.891900      -16.023500       35.158370
  C            4.639530      -14.871130       35.148590
  C            3.959680      -13.624200       35.155220
  O            7.055390       -8.948160       35.202870
  C           10.874180       -9.499350       35.071900
  C            6.133360       -9.979590       35.193700
  C            4.763650       -9.911340       35.214720
  C            4.025220      -11.123560       35.183330
  O           -1.577660      -10.791320       35.095050
  C           -2.996090       -7.197380       35.079260
  C           -0.220060      -11.067440       35.125440
  C            0.407440      -12.287300       35.150070
  C            1.829160      -12.318510       35.168540
  O          -13.056350        1.319750       35.243960
  C          -10.716900        4.393490       35.269060
  C          -12.566270        0.026240       35.267520
  C          -13.261530       -1.160160       35.278630
  C          -12.529510       -2.376080       35.243830
  O          -15.439560       -7.174430       35.074570
  C          -19.267830       -6.710420       35.243230
  C          -14.558980       -6.107440       35.112590
  C          -13.187390       -6.116820       35.054430
  C          -12.498740       -4.875950       35.128380
  O           -6.888210       -5.013850       35.076050
  C           -5.419170       -8.588210       35.033820
  C           -8.255570       -4.775830       35.083940
  C           -8.925430       -3.576320       35.114260
  C          -10.347700       -3.593920       35.135340
  O          -16.633870       -5.198640       35.295500
  C          -18.044590       -8.798780       35.110250
  C          -15.281140       -4.914600       35.239210
  C          -14.652210       -3.693710       35.290610
  C          -13.234870       -3.655470       35.224150
  O          -10.737260        1.371810       35.254000
  C          -13.134970        4.411470       35.147320
  C          -11.166540        0.056250       35.254540
  C          -10.421590       -1.096270       35.206020
  C          -11.100260       -2.344120       35.190890
  O           -8.023560       -7.037550       35.054360
  C           -4.199060       -6.496050       35.083140
  C           -8.937080       -5.997250       35.065740
  C          -10.307450       -6.060890       35.076780
  C          -11.041580       -4.844330       35.106160
  O            8.172990      -10.977120       35.080330
  C            9.652720       -7.411520       35.202270
  C            6.809130      -11.204710       35.133200
  C            6.134520      -12.400880       35.128320
  C            4.714520      -12.376100       35.156830
  O            2.003680      -17.287270       35.140560
  C            4.316230      -20.374120       35.263570
  C            2.492060      -15.992600       35.145650
  C            1.797120      -14.810700       35.164320
  C            2.532030      -13.595150       35.170480
  O           -0.385080       -8.801300       35.083010
  C           -4.216710       -9.290010       35.035090
  C            0.500910       -9.868060       35.124970
  C            1.873970       -9.851640       35.147790
  C            2.566760      -11.094100       35.173890
  C            9.642680       -8.817110       35.119010
  C           -2.984870       -8.606630       35.055840
  C            3.113210      -19.643760       35.203270
  C          -18.034500       -7.392060       35.194240
  C           -5.431510       -7.179400       35.059720
  C          -11.931000        3.680580       35.212440
  H            0.959510      -19.800790       35.106430
  H            5.721090      -14.935920       35.145850
  H           10.874540      -10.586070       35.021840
  H            4.277690       -8.942510       35.236670
  H           -2.052530       -6.655100       35.085350
  H           -0.186530      -13.193900       35.162650
  H           -9.779600        3.842300       35.318050
  H          -14.344790       -1.145080       35.296700
  H          -19.269820       -5.624090       35.300920
  H          -12.667260       -7.063380       34.957720
  H           -6.361410       -9.132940       35.029200
  H           -8.363980       -2.649000       35.109440
  H          -17.099950       -9.339180       35.081800
  H          -15.246590       -2.793340       35.388460
  H          -14.081190        3.874650       35.110710
  H           -9.341110       -1.026640       35.151340
  H           -4.191260       -5.407840       35.091840
  H          -10.796070       -7.028730       35.092040
  H            8.706240       -6.874950       35.236670
  H            6.693240      -13.328960       35.093780
  H            5.261350      -19.835440       35.295760
  H            0.714200      -14.829800       35.196650
  H           -4.224940      -10.378700       35.037230
  H            2.400700       -8.904530       35.114730
  B          -17.871820       -8.648970       38.520250
  B           -7.889430       -8.774250       38.375220
  B          -12.755250       -0.092090       38.605050
  B            7.165910      -11.649460       38.458010
  B           -2.789820      -11.760450       38.448980
  B            2.301600      -20.354860       38.539530
  O            3.448620      -19.541660       38.552310
  C            1.094110      -22.598730       38.528620
  C            2.966540      -18.245590       38.520990
  C            3.672710      -17.066870       38.508270
  C            2.950490      -15.845090       38.503590
  O            5.889360      -11.063650       38.535110
  C            9.719670      -11.535020       38.410630
  C            5.004250      -12.127050       38.523000
  C            3.632560      -12.107250       38.549770
  C            2.936770      -13.344770       38.519580
  O           -2.673540      -13.163330       38.486120
  C           -4.129150       -9.582400       38.411230
  C           -1.308300      -13.410830       38.504530
  C           -0.647510      -14.615140       38.522390
  C            0.775330      -14.609060       38.523600
  O          -13.928790       -0.870710       38.608800
  C          -11.515080        2.150760       38.603240
  C          -13.489840       -2.181830       38.631620
  C          -14.229760       -3.338860       38.629940
  C          -13.540970       -4.581110       38.593670
  O          -16.615380       -9.265650       38.383320
  C          -20.438590       -8.744570       38.561950
  C          -15.697750       -8.231360       38.436190
  C          -14.327400       -8.291040       38.385600
  C          -13.592760       -7.078650       38.466040
  O           -7.985630       -7.372610       38.431440
  C           -6.555720      -10.963120       38.344100
  C           -9.344880       -7.105530       38.444090
  C           -9.980780       -5.891060       38.500110
  C          -11.402760       -5.870780       38.506870
  O          -17.739650       -7.254060       38.648420
  C          -19.204260      -10.826030       38.443220
  C          -16.378090       -7.015440       38.578010
  C          -15.706000       -5.818540       38.634960
  C          -14.287570       -5.833650       38.566300
  O          -11.608540       -0.905290       38.638580
  C          -13.938050        2.168950       38.535310
  C          -12.089340       -2.203000       38.633760
  C          -11.386480       -3.379210       38.601230
  C          -12.113120       -4.599620       38.566500
  O           -9.164910       -9.368850       38.352540
  C           -5.329560       -8.875510       38.388810
  C          -10.058070       -8.307920       38.388880
  C          -11.431860       -8.334010       38.391820
  C          -12.133630       -7.097990       38.448110
  O            7.075760      -13.053640       38.406480
  C            8.484600       -9.453240       38.527080
  C            5.720530      -13.328340       38.458080
  C            5.085480      -14.547270       38.451450
  C            3.665910      -14.572650       38.492950
  O            1.128800      -19.578640       38.512290
  C            3.515930      -22.615900       38.600970
  C            1.566720      -18.265860       38.511150
  C            0.830870      -17.106690       38.523670
  C            1.520020      -15.864880       38.524400
  O           -1.523570      -11.148040       38.452390
  C           -5.354600      -11.669260       38.364850
  C           -0.617670      -12.194800       38.489800
  C            0.753650      -12.141780       38.490810
  C            1.478690      -13.364400       38.517840
  C            8.483160      -10.860350       38.454670
  C           -4.119510      -10.991140       38.406610
  C            2.309570      -21.889170       38.561140
  C          -19.201570       -9.418950       38.520050
  C           -6.564710       -9.553580       38.363110
  C          -12.732580        1.441780       38.574130
  H            0.157310      -22.045040       38.500380
  H            4.756430      -17.095620       38.507800
  H            9.729710      -12.622360       38.367730
  H            3.115670      -11.155150       38.580890
  H           -3.185110       -9.041460       38.421740
  H           -1.216610      -15.537000       38.553920
  H          -10.576820        1.599180       38.626660
  H          -15.312120       -3.281820       38.637770
  H          -20.450610       -7.657580       38.606320
  H          -13.837040       -9.253380       38.298190
  H           -7.501030      -11.501990       38.329710
  H           -9.393160       -4.980160       38.527080
  H          -18.256050      -11.359190       38.414040
  H          -16.262620       -4.895830       38.745730
  H          -14.883360        1.629440       38.526340
  H          -10.303380       -3.349570       38.577940
  H           -5.316450       -7.787090       38.379240
  H          -11.949050       -9.286510       38.377970
  H            7.535730       -8.921250       38.557330
  H            5.674980      -15.455650       38.403670
  H            4.460270      -22.074960       38.611470
  H           -0.251250      -17.160810       38.551570
  H           -5.367090      -12.756930       38.364850
  H            1.249040      -11.178690       38.442420
  B          -18.945150      -10.608770       41.885620
  B           -8.990020      -10.423680       41.755650
  B          -14.142500       -1.865410       41.933340
  B            6.082370      -13.586170       41.819760
  B           -3.890650      -13.396870       41.765760
  B            0.916520      -22.116770       41.875850
  O            2.094850      -21.344740       41.884420
  C           -0.330670      -24.362070       41.840240
  C            1.664710      -20.031690       41.850950
  C            2.412330      -18.879320       41.841180
  C            1.732490      -17.632390       41.847810
  O            4.828200      -12.956360       41.895460
  C            8.646990      -13.507550       41.764480
  C            3.906160      -13.987780       41.886290
  C            2.536450      -13.919540       41.907300
  C            1.798030      -15.131750       41.875920
  O           -3.804860      -14.799510       41.787640
  C           -5.223280      -11.205570       41.771850
  C           -2.447250      -15.075630       41.818020
  C           -1.819750      -16.295490       41.842650
  C           -0.398030      -16.326700       41.861120
  O          -15.283550       -2.688440       41.936550
  C          -12.944090        0.385300       41.961650
  C          -14.793460       -3.981960       41.960110
  C          -15.488720       -5.168350       41.971220
  C          -14.756700       -6.384280       41.936420
  O          -17.666760      -11.182630       41.767160
  C          -21.495020      -10.718610       41.935810
  C          -16.786170      -10.115640       41.805170
  C          -15.414580      -10.125010       41.747020
  C          -14.725940       -8.884150       41.820970
  O           -9.115400       -9.022050       41.768630
  C           -7.646360      -12.596400       41.726400
  C          -10.482760       -8.784030       41.776530
  C          -11.152620       -7.584510       41.806850
  C          -12.574890       -7.602110       41.827930
  O          -18.861060       -9.206840       41.988080
  C          -20.271790      -12.806970       41.802830
  C          -17.508330       -8.922790       41.931800
  C          -16.879400       -7.701900       41.983200
  C          -15.462070       -7.663670       41.916740
  O          -12.964450       -2.636390       41.946590
  C          -15.362160        0.403280       41.839910
  C          -13.393740       -3.951950       41.947120
  C          -12.648790       -5.104460       41.898600
  C          -13.327450       -6.352310       41.883480
  O          -10.250760      -11.045750       41.746950
  C           -6.426250      -10.504240       41.775730
  C          -11.164280      -10.005440       41.758330
  C          -12.534640      -10.069080       41.769370
  C          -13.268780       -8.852530       41.798750
  O            5.945800      -14.985310       41.772920
  C            7.425530      -11.419720       41.894860
  C            4.581940      -15.212900       41.825790
  C            3.907330      -16.409070       41.820900
  C            2.487330      -16.384300       41.849410
  O           -0.223520      -21.295460       41.833150
  C            2.089030      -24.382310       41.956160
  C            0.264870      -20.000790       41.838240
  C           -0.430070      -18.818890       41.856910
  C            0.304840      -17.603340       41.863070
  O           -2.612270      -12.809490       41.775590
  C           -6.443900      -13.298210       41.727670
  C           -1.726280      -13.876250       41.817560
  C           -0.353220      -13.859840       41.840380
  C            0.339570      -15.102290       41.866480
  C            7.415490      -12.825300       41.811600
  C           -5.212070      -12.614820       41.748420
  C            0.886020      -23.651960       41.895860
  C          -20.261690      -11.400260       41.886820
  C           -7.658700      -11.187590       41.752300
  C          -14.158190       -0.327610       41.905030
  H           -1.267680      -23.808980       41.799020
  H            3.493900      -18.944120       41.838440
  H            8.647350      -14.594260       41.714420
  H            2.050500      -12.950700       41.929260
  H           -4.279730      -10.663300       41.777940
  H           -2.413720      -17.202090       41.855240
  H          -12.006790       -0.165900       42.010640
  H          -16.571980       -5.153280       41.989290
  H          -21.497010       -9.632280       41.993500
  H          -14.894450      -11.071580       41.650310
  H           -8.588600      -13.141130       41.721790
  H          -10.591170       -6.657190       41.802030
  H          -19.327150      -13.347370       41.774390
  H          -17.473780       -6.801530       42.081040
  H          -16.308380       -0.133540       41.803300
  H          -11.568310       -5.034830       41.843920
  H           -6.418450       -9.416030       41.784430
  H          -13.023260      -11.036920       41.784630
  H            6.479050      -10.883150       41.929260
  H            4.466050      -17.337160       41.786370
  H            3.034160      -23.843630       41.988350
  H           -1.512990      -18.837990       41.889230
  H           -6.452130      -14.386890       41.729820
  H            0.173510      -12.912720       41.807320
  B          -20.099020      -12.657160       45.212840
  B          -10.116620      -12.782450       45.067810
  B          -14.982440       -4.100280       45.297630
  B            4.938710      -15.657650       45.150600
  B           -5.017010      -15.768650       45.141560
  B            0.074410      -24.363050       45.232110
  O            1.221430      -23.549860       45.244900
  C           -1.133080      -26.606920       45.221200
  C            0.739340      -22.253790       45.213580
  C            1.445520      -21.075060       45.200860
  C            0.723300      -19.853280       45.196170
  O            3.662170      -15.071840       45.227700
  C            7.492480      -15.543210       45.103210
  C            2.777060      -16.135250       45.215580
  C            1.405360      -16.115440       45.242350
  C            0.709570      -17.352970       45.212170
  O           -4.900730      -17.171530       45.178710
  C           -6.356340      -13.590590       45.103820
  C           -3.535490      -17.419020       45.197110
  C           -2.874700      -18.623330       45.214980
  C           -1.451860      -18.617250       45.216190
  O          -16.155980       -4.878900       45.301380
  C          -13.742270       -1.857430       45.295830
  C          -15.717030       -6.190030       45.324200
  C          -16.456950       -7.347050       45.322530
  C          -15.768160       -8.589300       45.286260
  O          -18.842570      -13.273840       45.075910
  C          -22.665780      -12.752760       45.254530
  C          -17.924950      -12.239550       45.128780
  C          -16.554590      -12.299240       45.078180
  C          -15.819950      -11.086840       45.158630
  O          -10.212820      -11.380810       45.124030
  C           -8.782910      -14.971310       45.036690
  C          -11.572080      -11.113720       45.136680
  C          -12.207970       -9.899250       45.192690
  C          -13.629950       -9.878980       45.199450
  O          -19.966840      -11.262250       45.341000
  C          -21.431450      -14.834220       45.135810
  C          -18.605280      -11.023630       45.270600
  C          -17.933190       -9.826730       45.327550
  C          -16.514760       -9.841850       45.258880
  O          -13.835730       -4.913480       45.331160
  C          -16.165250       -1.839240       45.227900
  C          -14.316530       -6.211190       45.326350
  C          -13.613670       -7.387410       45.293820
  C          -14.340310       -8.607820       45.259080
  O          -11.392100      -13.377040       45.045120
  C           -7.556750      -12.883710       45.081400
  C          -12.285260      -12.316110       45.081460
  C          -13.659060      -12.342200       45.084410
  C          -14.360820      -11.106180       45.140690
  O            4.848570      -17.061830       45.099070
  C            6.257400      -13.461430       45.219670
  C            3.493340      -17.336530       45.150670
  C            2.858290      -18.555470       45.144040
  C            1.438710      -18.580840       45.185530
  O           -1.098390      -23.586840       45.204880
  C            1.288730      -26.624090       45.293550
  C           -0.660470      -22.274050       45.203740
  C           -1.396330      -21.114890       45.216250
  C           -0.707170      -19.873070       45.216990
  O           -3.750770      -15.156230       45.144980
  C           -7.581790      -15.677460       45.057440
  C           -2.844860      -16.203000       45.182390
  C           -1.473540      -16.149970       45.183390
  C           -0.748500      -17.372590       45.210430
  C            6.255960      -14.868540       45.147250
  C           -6.346700      -14.999330       45.099200
  C            0.082380      -25.897370       45.253730
  C          -21.428770      -13.427140       45.212640
  C           -8.791900      -13.561770       45.055700
  C          -14.959770       -2.566410       45.266710
  H           -2.069880      -26.053240       45.192960
  H            2.529240      -21.103820       45.200390
  H            7.502510      -16.630560       45.060320
  H            0.888480      -15.163340       45.273470
  H           -5.412300      -13.049650       45.114320
  H           -3.443800      -19.545190       45.246500
  H          -12.804020       -2.409010       45.319250
  H          -17.539310       -7.290010       45.330360
  H          -22.677810      -11.665770       45.298910
  H          -16.064230      -13.261570       44.990780
  H           -9.728220      -15.510190       45.022300
  H          -11.620350       -8.988360       45.219670
  H          -20.483240      -15.367380       45.106630
  H          -18.489810       -8.904020       45.438310
  H          -17.110550       -2.378750       45.218930
  H          -12.530570       -7.357760       45.270530
  H           -7.543650      -11.795280       45.071830
  H          -14.176240      -13.294700       45.070550
  H            5.308540      -12.929440       45.249920
  H            3.447780      -19.463840       45.096250
  H            2.233080      -26.083150       45.304060
  H           -2.478440      -21.169010       45.244160
  H           -7.594280      -16.765120       45.057440
  H           -0.978150      -15.186880       45.135000
  B          -20.603060       39.598730        1.730100
  B          -10.647930       39.783820        1.600130
  B          -15.800410       48.342090        1.777820
  B            4.424460       36.621330        1.664250
  B           -5.548560       36.810620        1.610240
  B           -0.741390       28.090730        1.720330
  O            0.436940       28.862760        1.728900
  C           -1.988580       25.845430        1.684720
  C            0.006800       30.175810        1.695430
  C            0.754430       31.328180        1.685660
  C            0.074580       32.575100        1.692290
  O            3.170290       37.251140        1.739940
  C            6.989080       36.699950        1.608960
  C            2.248250       36.219720        1.730770
  C            0.878540       36.287960        1.751780
  C            0.140120       35.075750        1.720400
  O           -5.462770       35.407990        1.632120
  C           -6.881190       39.001920        1.616330
  C           -4.105160       35.131870        1.662510
  C           -3.477660       33.912000        1.687130
  C           -2.055940       33.880800        1.705610
  O          -16.941460       47.519050        1.781030
  C          -14.602000       50.592800        1.806130
  C          -16.451370       46.225540        1.804590
  C          -17.146630       45.039150        1.815700
  C          -16.414610       43.823220        1.780900
  O          -19.324670       39.024870        1.611640
  C          -23.152930       39.488880        1.780290
  C          -18.444080       40.091860        1.649660
  C          -17.072490       40.082480        1.591500
  C          -16.383850       41.323350        1.665450
  O          -10.773310       41.185450        1.613110
  C           -9.304270       37.611090        1.570880
  C          -12.140670       41.423470        1.621010
  C          -12.810530       42.622990        1.651330
  C          -14.232800       42.605390        1.672410
  O          -20.518970       41.000660        1.832560
  C          -21.929700       37.400520        1.647310
  C          -19.166240       41.284700        1.776280
  C          -18.537310       42.505600        1.827680
  C          -17.119980       42.543830        1.761220
  O          -14.622360       47.571110        1.791070
  C          -17.020070       50.610780        1.684390
  C          -15.051650       46.255550        1.791610
  C          -14.306700       45.103040        1.743080
  C          -14.985360       43.855190        1.727960
  O          -11.908670       39.161750        1.591430
  C           -8.084160       39.703260        1.620210
  C          -12.822190       40.202050        1.602810
  C          -14.192550       40.138420        1.613850
  C          -14.926690       41.354970        1.643230
  O            4.287890       35.222190        1.617400
  C            5.767620       38.787780        1.739340
  C            2.924030       34.994600        1.670270
  C            2.249420       33.798420        1.665380
  C            0.829420       33.823200        1.693890
  O           -1.881430       28.912030        1.677630
  C            0.431120       25.825190        1.800640
  C           -1.393040       30.206700        1.682720
  C           -2.087980       31.388600        1.701390
  C           -1.353070       32.604160        1.707550
  O           -4.270180       37.398000        1.620070
  C           -8.101810       36.909290        1.572160
  C           -3.384190       36.331250        1.662040
  C           -2.011130       36.347660        1.684860
  C           -1.318340       35.105200        1.710960
  C            5.757580       37.382190        1.656080
  C           -6.869980       37.592680        1.592900
  C           -0.771890       26.555540        1.740340
  C          -21.919600       38.807240        1.731310
  C           -9.316610       39.019900        1.596780
  C          -15.816100       49.879890        1.749510
  H           -2.925590       26.398520        1.643500
  H            1.835990       31.263380        1.682920
  H            6.989440       35.613230        1.558900
  H            0.392590       37.256800        1.773740
  H           -5.937640       39.544200        1.622420
  H           -4.071630       33.005410        1.699720
  H          -13.664700       50.041600        1.855120
  H          -18.229890       45.054220        1.833770
  H          -23.154920       40.575220        1.837990
  H          -16.552360       39.135920        1.494790
  H          -10.246510       37.066370        1.566270
  H          -12.249080       43.550310        1.646510
  H          -20.985060       36.860120        1.618870
  H          -19.131690       43.405960        1.925520
  H          -17.966290       50.073960        1.647780
  H          -13.226220       45.172670        1.688410
  H           -8.076360       40.791470        1.628910
  H          -14.681170       39.170570        1.629110
  H            4.821140       39.324350        1.773740
  H            2.808140       32.870340        1.630850
  H            1.376250       26.363860        1.832830
  H           -3.170900       31.369500        1.733710
  H           -8.110040       35.820600        1.574300
  H           -1.484400       37.294770        1.651800
  B          -21.756930       37.550340        5.057320
  B          -11.774530       37.425050        4.912290
  B          -16.640350       46.107220        5.142120
  B            3.280800       34.549850        4.995080
  B           -6.674920       34.438850        4.986040
  B           -1.583500       25.844450        5.076590
  O           -0.436480       26.657640        5.089380
  C           -2.790990       23.600580        5.065690
  C           -0.918570       27.953710        5.058060
  C           -0.212390       29.132430        5.045340
  C           -0.934610       30.354220        5.040660
  O            2.004260       35.135660        5.072180
  C            5.834570       34.664290        4.947700
  C            1.119150       34.072250        5.060060
  C           -0.252550       34.092060        5.086830
  C           -0.948340       32.854530        5.056650
  O           -6.558640       33.035970        5.023190
  C           -8.014250       36.616910        4.948300
  C           -5.193400       32.788480        5.041590
  C           -4.532610       31.584170        5.059460
  C           -3.109770       31.590250        5.060670
  O          -17.813890       45.328590        5.145860
  C          -15.400180       48.350070        5.140310
  C          -17.374940       44.017470        5.168680
  C          -18.114860       42.860440        5.167010
  C          -17.426070       41.618200        5.130740
  O          -20.500480       36.933660        4.920390
  C          -24.323690       37.454740        5.099010
  C          -19.582860       37.967940        4.973260
  C          -18.212500       37.908260        4.922670
  C          -17.477860       39.120650        5.003110
  O          -11.870730       38.826690        4.968510
  C          -10.440820       35.236190        4.881170
  C          -13.229990       39.093780        4.981160
  C          -13.865880       40.308240        5.037180
  C          -15.287860       40.328520        5.043930
  O          -21.624750       38.945250        5.185480
  C          -23.089360       35.373270        4.980290
  C          -20.263190       39.183860        5.115080
  C          -19.591100       40.380770        5.172030
  C          -18.172670       40.365650        5.103360
  O          -15.493640       45.294020        5.175640
  C          -17.823160       48.368260        5.072380
  C          -15.974440       43.996310        5.170830
  C          -15.271580       42.820090        5.138300
  C          -15.998220       41.599680        5.103570
  O          -13.050010       36.830460        4.889600
  C           -9.214660       37.323790        4.925880
  C          -13.943170       37.891390        4.925940
  C          -15.316970       37.865300        4.928890
  C          -16.018730       39.101310        4.985170
  O            3.190660       33.145660        4.943550
  C            4.599490       36.746070        5.064150
  C            1.835430       32.870960        4.995150
  C            1.200380       31.652030        4.988520
  C           -0.219200       31.626660        5.030010
  O           -2.756300       26.620660        5.049360
  C           -0.369180       23.583410        5.138030
  C           -2.318380       27.933440        5.048220
  C           -3.054240       29.092610        5.060730
  C           -2.365080       30.334430        5.061470
  O           -5.408680       35.051270        4.989460
  C           -9.239700       34.530040        4.901920
  C           -4.502770       34.004500        5.026870
  C           -3.131450       34.057520        5.027870
  C           -2.406410       32.834910        5.054910
  C            4.598050       35.338950        4.991730
  C           -8.004610       35.208170        4.943680
  C           -1.575530       24.310130        5.098210
  C          -23.086680       36.780360        5.057120
  C          -10.449810       36.645720        4.900180
  C          -16.617680       47.641090        5.111200
  H           -3.727790       24.154260        5.037440
  H            0.871330       29.103680        5.044870
  H            5.844600       33.576940        4.904800
  H           -0.769430       35.044150        5.117950
  H           -7.070210       37.157850        4.958810
  H           -5.101710       30.662300        5.090980
  H          -14.461930       47.798490        5.163730
  H          -19.197220       42.917490        5.174840
  H          -24.335720       38.541730        5.143390
  H          -17.722140       36.945930        4.835260
  H          -11.386130       34.697310        4.866780
  H          -13.278260       41.219140        5.064150
  H          -22.141150       34.840120        4.951110
  H          -20.147720       41.303480        5.282790
  H          -18.768460       47.828750        5.063410
  H          -14.188480       42.849730        5.115010
  H           -9.201560       38.412220        4.916310
  H          -15.834150       36.912800        4.915040
  H            3.650630       37.278060        5.094400
  H            1.789870       30.743660        4.940740
  H            0.575170       24.124350        5.148540
  H           -4.136350       29.038490        5.088640
  H           -9.252190       33.442380        4.901920
  H           -2.636060       35.020620        4.979490
  B          -22.830250       35.590540        8.422690
  B          -12.875120       35.775620        8.292720
  B          -18.027600       44.333890        8.470410
  B            2.197270       32.613130        8.356830
  B           -7.775750       32.802430        8.302820
  B           -2.968580       24.082530        8.412920
  O           -1.790250       24.854570        8.421480
  C           -4.215770       21.837240        8.377310
  C           -2.220390       26.167610        8.388020
  C           -1.472770       27.319990        8.378250
  C           -2.152620       28.566910        8.384870
  O            0.943100       33.242950        8.432530
  C            4.761890       32.691760        8.301550
  C            0.021060       32.211520        8.423360
  C           -1.348650       32.279770        8.444370
  C           -2.087070       31.067550        8.412980
  O           -7.689960       31.399790        8.324710
  C           -9.108380       34.993730        8.308910
  C           -6.332350       31.123670        8.355090
  C           -5.704850       29.903810        8.379720
  C           -4.283130       29.872610        8.398190
  O          -19.168650       43.510860        8.473620
  C          -16.829190       46.584610        8.498710
  C          -18.678560       42.217350        8.497180
  C          -19.373820       41.030950        8.508290
  C          -18.641800       39.815030        8.473480
  O          -21.551860       35.016680        8.304230
  C          -25.380120       35.480690        8.472880
  C          -20.671270       36.083670        8.342240
  C          -19.299690       36.074290        8.284080
  C          -18.611040       37.315160        8.358040
  O          -13.000500       37.177260        8.305700
  C          -11.531470       33.602900        8.263470
  C          -14.367860       37.415280        8.313600
  C          -15.037720       38.614790        8.343920
  C          -16.459990       38.597200        8.365000
  O          -22.746160       36.992470        8.525150
  C          -24.156890       33.392330        8.339900
  C          -21.393430       37.276510        8.468870
  C          -20.764500       38.497400        8.520270
  C          -19.347170       38.535640        8.453810
  O          -16.849550       43.562920        8.483660
  C          -19.247260       46.602580        8.376980
  C          -17.278840       42.247360        8.484190
  C          -16.533890       41.094840        8.435670
  C          -17.212550       39.846990        8.420550
  O          -14.135860       35.153560        8.284020
  C          -10.311350       35.695060        8.312790
  C          -15.049380       36.193860        8.295390
  C          -16.419740       36.130220        8.306440
  C          -17.153880       37.346780        8.335820
  O            2.060700       31.213990        8.309980
  C            3.540420       34.779590        8.431920
  C            0.696830       30.986400        8.362860
  C            0.022230       29.790230        8.357970
  C           -1.397780       29.815010        8.386480
  O           -4.108620       24.903840        8.370220
  C           -1.796070       21.816990        8.493230
  C           -3.620230       26.198510        8.375300
  C           -4.315170       27.380410        8.393980
  C           -3.580260       28.595960        8.400130
  O           -6.497370       33.389810        8.312660
  C          -10.329000       32.901100        8.264740
  C           -5.611380       32.323050        8.354620
  C           -4.238320       32.339470        8.377450
  C           -3.545530       31.097010        8.403550
  C            3.530380       33.374000        8.348670
  C           -9.097170       33.584480        8.285490
  C           -2.999080       22.547350        8.432930
  C          -24.146790       34.799050        8.423890
  C          -11.543800       35.011710        8.289370
  C          -18.043290       45.871690        8.442100
  H           -5.152780       22.390330        8.336090
  H           -0.391200       27.255190        8.375500
  H            4.762250       31.605040        8.251490
  H           -1.834600       33.248600        8.466320
  H           -8.164830       35.536010        8.315000
  H           -6.298820       28.997210        8.392300
  H          -15.891890       46.033410        8.547700
  H          -20.457090       41.046030        8.526360
  H          -25.382110       36.567020        8.530570
  H          -18.779550       35.127730        8.187380
  H          -12.473700       33.058170        8.258850
  H          -14.476270       39.542110        8.339100
  H          -23.212250       32.851930        8.311460
  H          -21.358880       39.397770        8.618110
  H          -20.193480       46.065760        8.340370
  H          -15.453410       41.164470        8.380990
  H          -10.303560       36.783270        8.321500
  H          -16.908360       35.162380        8.321700
  H            2.593950       35.316160        8.466320
  H            0.580950       28.862150        8.323440
  H           -0.850940       22.355670        8.525420
  H           -5.398100       27.361310        8.426300
  H          -10.337230       31.812410        8.266880
  H           -3.711600       33.286580        8.344380
  B          -23.984120       33.542140       11.749910
  B          -14.001720       33.416860       11.604880
  B          -18.867540       42.099020       11.834700
  B            1.053610       30.541650       11.687670
  B           -8.902110       30.430660       11.678630
  B           -3.810690       21.836250       11.769180
  O           -2.663670       22.649450       11.781960
  C           -5.018180       19.592390       11.758270
  C           -3.145760       23.945520       11.750640
  C           -2.439590       25.124240       11.737930
  C           -3.161800       26.346030       11.733240
  O           -0.222930       31.127460       11.764760
  C            3.607380       30.656090       11.640280
  C           -1.108040       30.064060       11.752650
  C           -2.479740       30.083860       11.779420
  C           -3.175530       28.846340       11.749240
  O           -8.785840       29.027780       11.715770
  C          -10.241450       32.608710       11.640880
  C           -7.420590       28.780280       11.734180
  C           -6.759810       27.575980       11.752050
  C           -5.336960       27.582060       11.753250
  O          -20.041080       41.320400       11.838450
  C          -17.627370       44.341880       11.832890
  C          -19.602140       40.009280       11.861270
  C          -20.342060       38.852250       11.859600
  C          -19.653260       37.610000       11.823320
  O          -22.727680       32.925460       11.612980
  C          -26.550880       33.446550       11.791600
  C          -21.810050       33.959750       11.665850
  C          -20.439700       33.900070       11.615250
  C          -19.705050       35.112460       11.695700
  O          -14.097930       34.818500       11.661100
  C          -12.668010       31.227990       11.573760
  C          -15.457180       35.085580       11.673740
  C          -16.093080       36.300050       11.729760
  C          -17.515060       36.320330       11.736520
  O          -23.851950       34.937060       11.878070
  C          -25.316550       31.365080       11.672870
  C          -22.490380       35.175670       11.807660
  C          -21.818300       36.372570       11.864620
  C          -20.399860       36.357460       11.795950
  O          -17.720840       41.285820       11.868230
  C          -20.050350       44.360060       11.764960
  C          -18.201630       39.988120       11.863410
  C          -17.498780       38.811900       11.830890
  C          -18.225410       37.591490       11.796150
  O          -15.277200       32.822260       11.582190
  C          -11.441850       33.315600       11.618460
  C          -16.170360       33.883190       11.618530
  C          -17.544160       33.857100       11.621480
  C          -18.245930       35.093120       11.677760
  O            0.963460       29.137470       11.636130
  C            2.372300       32.737870       11.756730
  C           -0.391760       28.862770       11.687730
  C           -1.026820       27.643840       11.681110
  C           -2.446390       27.618460       11.722600
  O           -4.983490       22.612470       11.741940
  C           -2.596370       19.575220       11.830620
  C           -4.545570       23.925250       11.740800
  C           -5.281430       25.084420       11.753320
  C           -4.592270       26.326240       11.754060
  O           -7.635870       31.043070       11.682040
  C          -11.466900       30.521850       11.594500
  C           -6.729960       29.996310       11.719460
  C           -5.358640       30.049330       11.720460
  C           -4.633600       28.826720       11.747500
  C            2.370860       31.330760       11.684320
  C          -10.231800       31.199970       11.636270
  C           -3.802720       20.301940       11.790800
  C          -25.313870       32.772160       11.749710
  C          -12.677010       32.637530       11.592760
  C          -18.844870       43.632890       11.803780
  H           -5.954990       20.146070       11.730030
  H           -1.355860       25.095490       11.737460
  H            3.617410       29.568750       11.597380
  H           -2.996620       31.035960       11.810540
  H           -9.297400       33.149650       11.651390
  H           -7.328910       26.654110       11.783570
  H          -16.689120       43.790290       11.856320
  H          -21.424420       38.909290       11.867430
  H          -26.562910       34.533530       11.835970
  H          -19.949330       32.937730       11.527850
  H          -13.613320       30.689120       11.559370
  H          -15.505450       37.210950       11.756730
  H          -24.368340       30.831920       11.643700
  H          -22.374910       37.295280       11.975380
  H          -20.995650       43.820560       11.756000
  H          -16.415670       38.841540       11.807600
  H          -11.428750       34.404020       11.608890
  H          -18.061350       32.904600       11.607620
  H            1.423430       33.269870       11.786980
  H           -0.437320       26.735460       11.633320
  H           -1.652020       20.116160       11.841130
  H           -6.363540       25.030300       11.781230
  H          -11.479390       29.434190       11.594500
  H           -4.863250       31.012430       11.672070
  B          -25.057440       31.582340       15.115270
  B          -15.102310       31.767430       14.985300
  B          -20.254790       40.325700       15.162990
  B           -0.029920       28.604940       15.049420
  B          -10.002950       28.794240       14.995410
  B           -5.195770       20.074340       15.105500
  O           -4.017440       20.846370       15.114070
  C           -6.442960       17.829040       15.069900
  C           -4.447590       22.159420       15.080610
  C           -3.699960       23.311790       15.070830
  C           -4.379810       24.558720       15.077460
  O           -1.284090       29.234760       15.125110
  C            2.534700       28.683560       14.994140
  C           -2.206130       28.203330       15.115940
  C           -3.575840       28.271570       15.136960
  C           -4.314270       27.059360       15.105570
  O           -9.917150       27.391600       15.017290
  C          -11.335570       30.985540       15.001500
  C           -8.559540       27.115480       15.047680
  C           -7.932040       25.895620       15.072310
  C           -6.510320       25.864410       15.090780
  O          -21.395840       39.502670       15.166200
  C          -19.056380       42.576410       15.191300
  C          -20.905750       38.209150       15.189760
  C          -21.601010       37.022760       15.200870
  C          -20.869000       35.806840       15.166070
  O          -23.779050       31.008480       14.996810
  C          -27.607320       31.472500       15.165470
  C          -22.898460       32.075470       15.034830
  C          -21.526880       32.066100       14.976670
  C          -20.838230       33.306970       15.050620
  O          -15.227690       33.169070       14.998290
  C          -13.758660       29.594710       14.956060
  C          -16.595050       33.407090       15.006180
  C          -17.264910       34.606600       15.036500
  C          -18.687190       34.589000       15.057580
  O          -24.973360       32.984270       15.217740
  C          -26.384080       29.384140       15.032490
  C          -23.620630       33.268320       15.161450
  C          -22.991690       34.489210       15.212850
  C          -21.574360       34.527440       15.146390
  O          -19.076740       39.554730       15.176240
  C          -21.474450       42.594390       15.069560
  C          -19.506030       38.239160       15.176780
  C          -18.761080       37.086650       15.128260
  C          -19.439740       35.838800       15.113130
  O          -16.363050       31.145360       14.976600
  C          -12.538540       31.686870       15.005380
  C          -17.276570       32.185670       14.987980
  C          -18.646940       32.122030       14.999020
  C          -19.381070       33.338580       15.028400
  O           -0.166500       27.205800       15.002570
  C            1.313230       30.771400       15.124510
  C           -1.530360       26.978210       15.055440
  C           -2.204960       25.782040       15.050560
  C           -3.624970       25.806820       15.079070
  O           -6.335810       20.895650       15.062800
  C           -4.023260       17.808800       15.185810
  C           -5.847420       22.190320       15.067890
  C           -6.542360       23.372220       15.086560
  C           -5.807460       24.587770       15.092720
  O           -8.724570       29.381620       15.005250
  C          -12.556190       28.892900       14.957330
  C           -7.838580       28.314860       15.047210
  C           -6.465520       28.331270       15.070030
  C           -5.772730       27.088820       15.096130
  C            1.303190       29.365810       15.041250
  C          -11.324360       29.576290       14.978080
  C           -5.226270       18.539160       15.125510
  C          -26.373980       30.790850       15.116480
  C          -13.770990       31.003520       14.981960
  C          -20.270480       41.863500       15.134680
  H           -7.379970       18.382130       15.028670
  H           -2.618390       23.246990       15.068090
  H            2.535060       27.596850       14.944080
  H           -4.061790       29.240410       15.158910
  H          -10.392020       31.527810       15.007590
  H           -8.526010       24.989020       15.084890
  H          -18.119080       42.025210       15.240290
  H          -22.684280       37.037830       15.218940
  H          -27.609310       32.558830       15.223160
  H          -21.006750       31.119540       14.879960
  H          -14.700900       29.049980       14.951440
  H          -16.703460       35.533920       15.031680
  H          -25.439440       28.843740       15.004040
  H          -23.586070       35.389580       15.310700
  H          -22.420670       42.057570       15.032950
  H          -17.680600       37.156280       15.073580
  H          -12.530750       32.775080       15.014080
  H          -19.135560       31.154190       15.014280
  H            0.366760       31.307970       15.158910
  H           -1.646250       24.853960       15.016020
  H           -3.078130       18.347480       15.218000
  H           -7.625290       23.353120       15.118890
  H          -12.564430       27.804220       14.959470
  H           -5.938790       29.278390       15.036970
  B          -26.211310       29.533950       18.442490
  B          -16.228910       29.408660       18.297460
  B          -21.094740       38.090830       18.527290
  B           -1.173580       26.533460       18.380250
  B          -11.129300       26.422470       18.371220
  B           -6.037890       17.828060       18.461770
  O           -4.890870       18.641250       18.474550
  C           -7.245370       15.584190       18.450860
  C           -5.372950       19.937320       18.443230
  C           -4.666780       21.116050       18.430510
  C           -5.389000       22.337830       18.425830
  O           -2.450120       27.119270       18.457350
  C            1.380190       26.647900       18.332870
  C           -3.335240       26.055860       18.445240
  C           -4.706930       26.075670       18.472010
  C           -5.402720       24.838150       18.441820
  O          -11.013030       25.019580       18.408360
  C          -12.468640       28.600520       18.333470
  C           -9.647790       24.772090       18.426770
  C           -8.987000       23.567780       18.444630
  C           -7.564160       23.573860       18.445840
  O          -22.268280       37.312210       18.531040
  C          -19.854560       40.333680       18.525480
  C          -21.829330       36.001080       18.553860
  C          -22.569250       34.844060       18.552180
  C          -21.880460       33.601810       18.515910
  O          -24.954870       28.917270       18.305560
  C          -28.778070       29.438350       18.484190
  C          -24.037240       29.951560       18.358430
  C          -22.666890       29.891870       18.307840
  C          -21.932240       31.104270       18.388280
  O          -16.325120       30.810300       18.353680
  C          -14.895200       27.219800       18.266340
  C          -17.684370       31.077390       18.366330
  C          -18.320270       32.291860       18.422350
  C          -19.742250       32.312140       18.429110
  O          -26.079140       30.928860       18.570660
  C          -27.543750       27.356890       18.365460
  C          -24.717570       31.167480       18.500250
  C          -24.045490       32.364380       18.557200
  C          -22.627050       32.349260       18.488540
  O          -19.948030       37.277630       18.560820
  C          -22.277540       40.351870       18.457550
  C          -20.428830       35.979920       18.556000
  C          -19.725970       34.803700       18.523470
  C          -20.452600       33.583290       18.488740
  O          -17.504400       28.814070       18.274780
  C          -13.669050       29.307400       18.311050
  C          -18.397560       29.875000       18.311120
  C          -19.771350       29.848910       18.314060
  C          -20.473120       31.084930       18.370350
  O           -1.263730       25.129280       18.328720
  C            0.145110       28.729680       18.449320
  C           -2.618950       24.854580       18.380320
  C           -3.254010       23.635640       18.373690
  C           -4.673580       23.610270       18.415190
  O           -7.210690       18.604270       18.434530
  C           -4.823560       15.567020       18.523210
  C           -6.772770       19.917060       18.433390
  C           -7.508620       21.076220       18.445910
  C           -6.819470       22.318040       18.446640
  O           -9.863060       27.034880       18.374630
  C          -13.694090       26.513660       18.287090
  C           -8.957160       25.988120       18.412040
  C           -7.585840       26.041140       18.413050
  C           -6.860800       24.818520       18.440080
  C            0.143670       27.322570       18.376910
  C          -12.459000       27.191780       18.328850
  C           -6.029910       16.293750       18.483380
  C          -27.541060       28.763970       18.442290
  C          -14.904200       28.629340       18.285350
  C          -21.072060       39.624700       18.496370
  H           -8.182180       16.137880       18.422620
  H           -3.583050       21.087290       18.430040
  H            1.390220       25.560550       18.289970
  H           -5.223810       27.027770       18.503130
  H          -11.524590       29.141460       18.343980
  H           -9.556100       22.645920       18.476160
  H          -18.916310       39.782100       18.548910
  H          -23.651610       34.901100       18.560010
  H          -28.790100       30.525340       18.528560
  H          -22.176520       28.929540       18.220430
  H          -15.840520       26.680920       18.251960
  H          -17.732640       33.202760       18.449320
  H          -26.595540       26.823730       18.336280
  H          -24.602100       33.287090       18.667970
  H          -23.222850       39.812360       18.448580
  H          -18.642860       34.833350       18.500180
  H          -13.655940       30.395830       18.301480
  H          -20.288540       28.896410       18.300210
  H           -0.803760       29.261670       18.479570
  H           -2.664510       22.727270       18.325910
  H           -3.879220       16.107960       18.533710
  H           -8.590730       21.022100       18.473810
  H          -13.706580       25.425990       18.287090
  H           -7.090450       27.004230       18.364660
  B          -27.284630       27.574150       21.807860
  B          -17.329500       27.759240       21.677890
  B          -22.481990       36.317510       21.855580
  B           -2.257120       24.596750       21.742010
  B          -12.230140       24.786040       21.688000
  B           -7.422960       16.066150       21.798090
  O           -6.244640       16.838180       21.806660
  C           -8.670150       13.820850       21.762480
  C           -6.674780       18.151230       21.773190
  C           -5.927150       19.303600       21.763420
  C           -6.607000       20.550520       21.770050
  O           -3.511290       25.226560       21.817700
  C            0.307500       24.675370       21.686720
  C           -4.433320       24.195140       21.808530
  C           -5.803030       24.263380       21.829540
  C           -6.541460       23.051170       21.798160
  O          -12.144340       23.383410       21.709880
  C          -13.562770       26.977340       21.694090
  C          -10.786730       23.107290       21.740270
  C          -10.159240       21.887420       21.764890
  C           -8.737510       21.856220       21.783370
  O          -23.623030       35.494470       21.858790
  C          -21.283580       38.568220       21.883890
  C          -23.132950       34.200960       21.882350
  C          -23.828210       33.014570       21.893460
  C          -23.096190       31.798640       21.858660
  O          -26.006240       27.000290       21.689400
  C          -29.834510       27.464300       21.858050
  C          -25.125650       28.067280       21.727420
  C          -23.754070       28.057900       21.669260
  C          -23.065420       29.298770       21.743210
  O          -17.454890       29.160870       21.690870
  C          -15.985850       25.586520       21.648640
  C          -18.822250       29.398890       21.698770
  C          -19.492110       30.598410       21.729090
  C          -20.914380       30.580810       21.750170
  O          -27.200550       28.976080       21.910320
  C          -28.611270       25.375940       21.725070
  C          -25.847820       29.260130       21.854040
  C          -25.218890       30.481020       21.905440
  C          -23.801550       30.519250       21.838980
  O          -21.303930       35.546530       21.868830
  C          -23.701650       38.586200       21.762150
  C          -21.733220       34.230970       21.869370
  C          -20.988270       33.078460       21.820840
  C          -21.666940       31.830610       21.805720
  O          -18.590240       27.137170       21.669190
  C          -14.765740       27.678680       21.697970
  C          -19.503760       28.177480       21.680570
  C          -20.874130       28.113840       21.691610
  C          -21.608260       29.330390       21.720990
  O           -2.393690       23.197610       21.695160
  C           -0.913960       26.763200       21.817100
  C           -3.757550       22.970020       21.748030
  C           -4.432160       21.773840       21.743140
  C           -5.852160       21.798620       21.771650
  O           -8.563000       16.887460       21.755390
  C           -6.250450       13.800610       21.878400
  C           -8.074620       18.182120       21.760480
  C           -8.769560       19.364020       21.779150
  C           -8.034650       20.579580       21.785310
  O          -10.951760       25.373420       21.697830
  C          -14.783390       24.884710       21.649920
  C          -10.065770       24.306670       21.739800
  C           -8.692710       24.323080       21.762620
  C           -7.999920       23.080620       21.788720
  C           -0.924000       25.357610       21.733840
  C          -13.551550       25.568100       21.670660
  C           -7.453470       14.530960       21.818100
  C          -28.601180       26.782660       21.809060
  C          -15.998190       26.995330       21.674540
  C          -22.497670       37.855310       21.827270
  H           -9.607160       14.373940       21.721260
  H           -4.845590       19.238800       21.760680
  H            0.307860       23.588650       21.636660
  H           -6.288990       25.232220       21.851500
  H          -12.619210       27.519620       21.700180
  H          -10.753200       20.980830       21.777480
  H          -20.346280       38.017020       21.932880
  H          -24.911470       33.029640       21.911530
  H          -29.836500       28.550640       21.915740
  H          -23.233940       27.111340       21.572550
  H          -16.928090       25.041790       21.644030
  H          -18.930650       31.525730       21.724270
  H          -27.666630       24.835540       21.696630
  H          -25.813260       31.381380       22.003280
  H          -24.647870       38.049380       21.725540
  H          -19.907790       33.148090       21.766170
  H          -14.757940       28.766890       21.706670
  H          -21.362750       27.145990       21.706870
  H           -1.860430       27.299770       21.851500
  H           -3.873440       20.845760       21.708610
  H           -5.305330       14.339280       21.910590
  H           -9.852480       19.344930       21.811470
  H          -14.791620       23.796030       21.652060
  H           -8.165980       25.270190       21.729560
  B          -28.438500       25.525760       25.135080
  B          -18.456100       25.400470       24.990050
  B          -23.321930       34.082640       25.219870
  B           -3.400770       22.525270       25.072840
  B          -13.356500       22.414270       25.063800
  B           -8.265080       13.819870       25.154350
  O           -7.118060       14.633060       25.167140
  C           -9.472570       11.576000       25.143450
  C           -7.600140       15.929130       25.135820
  C           -6.893970       17.107860       25.123100
  C           -7.616190       18.329640       25.118420
  O           -4.677320       23.111080       25.149940
  C           -0.847000       22.639710       25.025460
  C           -5.562430       22.047670       25.137820
  C           -6.934120       22.067480       25.164590
  C           -7.629910       20.829950       25.134410
  O          -13.240220       21.011390       25.100950
  C          -14.695830       24.592330       25.026060
  C          -11.874980       20.763900       25.119350
  C          -11.214190       19.559590       25.137220
  C           -9.791350       19.565670       25.138430
  O          -24.495470       33.304010       25.223620
  C          -22.081760       36.325490       25.218070
  C          -24.056520       31.992890       25.246440
  C          -24.796440       30.835860       25.244770
  C          -24.107650       29.593620       25.208500
  O          -27.182060       24.909080       24.998150
  C          -31.005270       25.430160       25.176770
  C          -26.264430       25.943360       25.051020
  C          -24.894080       25.883680       25.000420
  C          -24.159440       27.096070       25.080870
  O          -18.552310       26.802110       25.046270
  C          -17.122400       23.211610       24.958930
  C          -19.911560       27.069200       25.058920
  C          -20.547460       28.283660       25.114930
  C          -21.969440       28.303940       25.121690
  O          -28.306330       26.920670       25.263240
  C          -29.770940       23.348700       25.058050
  C          -26.944770       27.159280       25.192840
  C          -26.272680       28.356190       25.249790
  C          -24.854250       28.341070       25.181120
  O          -22.175220       33.269440       25.253400
  C          -24.504730       36.343680       25.150140
  C          -22.656020       31.971730       25.248590
  C          -21.953160       30.795510       25.216060
  C          -22.679800       29.575100       25.181330
  O          -19.731590       24.805880       24.967360
  C          -15.896240       25.299210       25.003640
  C          -20.624750       25.866810       25.003700
  C          -21.998540       25.840720       25.006650
  C          -22.700310       27.076730       25.062930
  O           -3.490920       21.121080       25.021310
  C           -2.082080       24.721490       25.141910
  C           -4.846150       20.846380       25.072910
  C           -5.481200       19.627450       25.066280
  C           -6.900770       19.602080       25.107770
  O           -9.437880       14.596080       25.127120
  C           -7.050750       11.558830       25.215790
  C           -8.999960       15.908860       25.125980
  C           -9.735810       17.068030       25.138490
  C           -9.046660       18.309850       25.139230
  O          -12.090250       23.026690       25.067220
  C          -15.921280       22.505460       24.979680
  C          -11.184350       21.979920       25.104630
  C           -9.813030       22.032950       25.105630
  C           -9.087990       20.810330       25.132670
  C           -2.083520       23.314380       25.069490
  C          -14.686190       23.183590       25.021440
  C           -8.257100       12.285550       25.175970
  C          -29.768250       24.755780       25.134880
  C          -17.131390       24.621150       24.977940
  C          -23.299260       35.616510       25.188950
  H          -10.409370       12.129680       25.115200
  H           -5.810240       17.079100       25.122630
  H           -0.836970       21.552360       24.982560
  H           -7.451000       23.019570       25.195710
  H          -13.751790       25.133270       25.036560
  H          -11.783290       18.637730       25.168740
  H          -21.143500       35.773910       25.241490
  H          -25.878800       30.892910       25.252600
  H          -31.017290       26.517150       25.221150
  H          -24.403720       24.921350       24.913020
  H          -18.067710       22.672730       24.944540
  H          -19.959840       29.194560       25.141910
  H          -28.822730       22.815540       25.028870
  H          -26.829290       29.278900       25.360550
  H          -25.450040       35.804170       25.141170
  H          -20.870060       30.825150       25.192770
  H          -15.883130       26.387640       24.994070
  H          -22.515730       24.888220       24.992800
  H           -3.030950       25.253480       25.172160
  H           -4.891700       18.719080       25.018490
  H           -6.106410       12.099770       25.226300
  H          -10.817930       17.013910       25.166400
  H          -15.933770       21.417800       24.979680
  H           -9.317640       22.996040       25.057240
  B          -29.511820       23.565960       28.500450
  B          -19.556700       23.751040       28.370480
  B          -24.709180       32.309310       28.548160
  B           -4.484310       20.588560       28.434590
  B          -14.457330       20.777850       28.380580
  B           -9.650160       12.057950       28.490680
  O           -8.471830       12.829990       28.499240
  C          -10.897340        9.812660       28.455070
  C           -8.901970       14.143030       28.465780
  C           -8.154340       15.295410       28.456010
  C           -8.834190       16.542330       28.462630
  O           -5.738480       21.218370       28.510280
  C           -1.919690       20.667180       28.379310
  C           -6.660520       20.186940       28.501120
  C           -8.030220       20.255190       28.522130
  C           -8.768650       19.042970       28.490740
  O          -14.371530       19.375210       28.402470
  C          -15.789960       22.969150       28.386670
  C          -13.013930       19.099100       28.432850
  C          -12.386430       17.879230       28.457480
  C          -10.964710       17.848030       28.475950
  O          -25.850230       31.486280       28.551380
  C          -23.510770       34.560030       28.576470
  C          -25.360140       30.192770       28.574940
  C          -26.055400       29.006370       28.586040
  C          -25.323380       27.790450       28.551240
  O          -28.233440       22.992100       28.381990
  C          -32.061700       23.456110       28.550640
  C          -27.352850       24.059090       28.420000
  C          -25.981260       24.049710       28.361840
  C          -25.292610       25.290580       28.435800
  O          -19.682080       25.152680       28.383460
  C          -18.213040       21.578320       28.341230
  C          -21.049440       25.390700       28.391360
  C          -21.719300       26.590210       28.421670
  C          -23.141570       26.572620       28.442760
  O          -29.427740       24.967890       28.602910
  C          -30.838470       21.367750       28.417660
  C          -28.075010       25.251930       28.546630
  C          -27.446080       26.472830       28.598020
  C          -26.028750       26.511060       28.531570
  O          -23.531130       31.538340       28.561420
  C          -25.928840       34.578000       28.454740
  C          -23.960420       30.222780       28.561950
  C          -23.215460       29.070260       28.513430
  C          -23.894130       27.822420       28.498310
  O          -20.817430       23.128980       28.361780
  C          -16.992930       23.670480       28.390550
  C          -21.730960       24.169280       28.373150
  C          -23.101320       24.105640       28.384200
  C          -23.835450       25.322200       28.413580
  O           -4.620880       19.189410       28.387740
  C           -3.141150       22.755010       28.509680
  C           -5.984740       18.961820       28.440610
  C           -6.659350       17.765650       28.435730
  C           -8.079350       17.790430       28.464240
  O          -10.790200       12.879260       28.447980
  C           -8.477650        9.792410       28.570990
  C          -10.301810       14.173930       28.453060
  C          -10.996750       15.355830       28.471740
  C          -10.261840       16.571380       28.477890
  O          -13.178950       21.365230       28.390420
  C          -17.010580       20.876520       28.342500
  C          -12.292960       20.298470       28.432380
  C          -10.919900       20.314890       28.455200
  C          -10.227110       19.072430       28.481310
  C           -3.151190       21.349420       28.426430
  C          -15.778740       21.559900       28.363250
  C           -9.680660       10.522770       28.510690
  C          -30.828370       22.774470       28.501650
  C          -18.225380       22.987130       28.367130
  C          -24.724870       33.847110       28.519860
  H          -11.834360       10.365750       28.413840
  H           -7.072780       15.230610       28.453260
  H           -1.919330       19.580460       28.329250
  H           -8.516180       21.224020       28.544080
  H          -14.846400       23.511430       28.392760
  H          -12.980400       16.972630       28.470060
  H          -22.573470       34.008830       28.625460
  H          -27.138660       29.021450       28.604110
  H          -32.063690       24.542450       28.608330
  H          -25.461130       23.103150       28.265140
  H          -19.155280       21.033590       28.336610
  H          -21.157850       27.517530       28.416860
  H          -29.893820       20.827350       28.389220
  H          -28.040460       27.373190       28.695870
  H          -26.875060       34.041190       28.418130
  H          -22.134980       29.139900       28.458750
  H          -16.985130       24.758690       28.399250
  H          -23.589940       23.137800       28.399460
  H           -4.087630       23.291580       28.544080
  H           -6.100630       16.837570       28.401200
  H           -7.532520       10.331090       28.603180
  H          -12.079670       15.336730       28.504060
  H          -17.018810       19.787830       28.344640
  H          -10.393170       21.262000       28.422140
  B          -30.665700       21.517570       31.827670
  B          -20.683300       21.392280       31.682640
  B          -25.549120       30.074440       31.912460
  B           -5.627970       18.517070       31.765430
  B          -15.583690       18.406080       31.756390
  B          -10.492270        9.811670       31.846940
  O           -9.345250       10.624870       31.859720
  C          -11.699760        7.567810       31.836030
  C           -9.827340       11.920940       31.828400
  C           -9.121160       13.099660       31.815690
  C           -9.843380       14.321450       31.811000
  O           -6.904510       19.102880       31.842520
  C           -3.074200       18.631510       31.718040
  C           -7.789620       18.039480       31.830410
  C           -9.161310       18.059280       31.857180
  C           -9.857100       16.821760       31.827000
  O          -15.467410       17.003200       31.793530
  C          -16.923020       20.584130       31.718640
  C          -14.102170       16.755700       31.811940
  C          -13.441380       15.551400       31.829810
  C          -12.018540       15.557480       31.831010
  O          -26.722660       29.295820       31.916210
  C          -24.308950       32.317300       31.910650
  C          -26.283710       27.984700       31.939030
  C          -27.023630       26.827670       31.937360
  C          -26.334840       25.585420       31.901080
  O          -29.409250       20.900880       31.690740
  C          -33.232460       21.421970       31.869360
  C          -28.491630       21.935170       31.743610
  C          -27.121270       21.875490       31.693010
  C          -26.386630       23.087880       31.773460
  O          -20.779500       22.793920       31.738860
  C          -19.349590       19.203410       31.651520
  C          -22.138760       23.061000       31.751500
  C          -22.774650       24.275470       31.807520
  C          -24.196630       24.295750       31.814280
  O          -30.533520       22.912480       31.955830
  C          -31.998130       19.340500       31.750630
  C          -29.171960       23.151090       31.885420
  C          -28.499870       24.347990       31.942380
  C          -27.081440       24.332880       31.873710
  O          -24.402410       29.261240       31.945990
  C          -26.731930       32.335480       31.842720
  C          -24.883210       27.963540       31.941170
  C          -24.180350       26.787320       31.908650
  C          -24.906990       25.566910       31.873910
  O          -21.958780       20.797680       31.659950
  C          -18.123430       21.291020       31.696220
  C          -22.851940       21.858610       31.696290
  C          -24.225730       21.832520       31.699240
  C          -24.927500       23.068540       31.755520
  O           -5.718110       17.112890       31.713890
  C           -4.309280       20.713290       31.834490
  C           -7.073340       16.838190       31.765490
  C           -7.708390       15.619260       31.758870
  C           -9.127960       15.593880       31.800360
  O          -11.665070       10.587890       31.819700
  C           -9.277950        7.550640       31.908380
  C          -11.227150       11.900670       31.818560
  C          -11.963000       13.059840       31.831080
  C          -11.273850       14.301660       31.831820
  O          -14.317450       19.018500       31.759800
  C          -18.148470       18.497270       31.672260
  C          -13.411540       17.971730       31.797210
  C          -12.040220       18.024750       31.798220
  C          -11.315180       16.802140       31.825260
  C           -4.310720       19.306180       31.762080
  C          -16.913380       19.175390       31.714030
  C          -10.484300        8.277360       31.868560
  C          -31.995440       20.747580       31.827470
  C          -19.358580       20.612950       31.670520
  C          -25.526450       31.608310       31.881540
  H          -12.636560        8.121490       31.807790
  H           -8.037440       13.070910       31.815220
  H           -3.064170       17.544170       31.675140
  H           -9.678200       19.011380       31.888300
  H          -15.978980       21.125070       31.729150
  H          -14.010480       14.629530       31.861330
  H          -23.370700       31.765710       31.934080
  H          -28.105990       26.884720       31.945190
  H          -33.244480       22.508950       31.913730
  H          -26.630910       20.913150       31.605610
  H          -20.294900       18.664540       31.637130
  H          -22.187030       25.186370       31.834490
  H          -31.049920       18.807340       31.721450
  H          -29.056490       25.270700       32.053140
  H          -27.677230       31.795980       31.833760
  H          -23.097250       26.816960       31.885360
  H          -18.110320       22.379440       31.686650
  H          -24.742920       20.880020       31.685380
  H           -5.258140       21.245290       31.864740
  H           -7.118890       14.710880       31.711080
  H           -8.333600        8.091580       31.918890
  H          -13.045120       13.005720       31.858990
  H          -18.160960       17.409610       31.672260
  H          -11.544830       18.987850       31.749830
  B          -31.739020       19.557760       35.193030
  B          -21.783890       19.742850       35.063060
  B          -26.936370       28.301120       35.240750
  B           -6.711500       16.580360       35.127180
  B          -16.684520       16.769660       35.073170
  B          -11.877350        8.049760       35.183260
  O          -10.699020        8.821790       35.191830
  C          -13.124540        5.804460       35.147660
  C          -11.129160       10.134840       35.158370
  C          -10.381540       11.287210       35.148590
  C          -11.061380       12.534140       35.155220
  O           -7.965670       17.210180       35.202870
  C           -4.146880       16.658990       35.071900
  C           -8.887710       16.178750       35.193700
  C          -10.257420       16.246990       35.214720
  C          -10.995840       15.034780       35.183330
  O          -16.598730       15.367020       35.095050
  C          -18.017150       18.960960       35.079260
  C          -15.241120       15.090900       35.125440
  C          -14.613620       13.871040       35.150070
  C          -13.191900       13.839830       35.168540
  O          -28.077420       27.478090       35.243960
  C          -25.737960       30.551830       35.269060
  C          -27.587330       26.184570       35.267520
  C          -28.282590       24.998180       35.278630
  C          -27.550570       23.782260       35.243830
  O          -30.460630       18.983900       35.074570
  C          -34.288890       19.447920       35.243230
  C          -29.580040       20.050890       35.112590
  C          -28.208460       20.041520       35.054430
  C          -27.519810       21.282390       35.128380
  O          -21.909270       21.144490       35.076050
  C          -20.440230       17.570130       35.033820
  C          -23.276630       21.382510       35.083940
  C          -23.946490       22.582020       35.114260
  C          -25.368760       22.564420       35.135340
  O          -31.654930       20.959690       35.295500
  C          -33.065660       17.359560       35.110250
  C          -30.302200       21.243740       35.239210
  C          -29.673270       22.464630       35.290610
  C          -28.255940       22.502860       35.224150
  O          -25.758320       27.530150       35.254000
  C          -28.156030       30.569810       35.147320
  C          -26.187610       26.214580       35.254540
  C          -25.442660       25.062070       35.206020
  C          -26.121320       23.814220       35.190890
  O          -23.044630       19.120780       35.054360
  C          -19.220120       19.662290       35.083140
  C          -23.958150       20.161090       35.065740
  C          -25.328510       20.097450       35.076780
  C          -26.062650       21.314000       35.106160
  O           -6.848070       15.181220       35.080330
  C           -5.368350       18.746820       35.202270
  C           -8.211930       14.953630       35.133200
  C           -8.886540       13.757460       35.128320
  C          -10.306540       13.782240       35.156830
  O          -13.017390        8.871070       35.140560
  C          -10.704840        5.784220       35.263570
  C          -12.529000       10.165740       35.145650
  C          -13.223940       11.347640       35.164320
  C          -12.489030       12.563190       35.170480
  O          -15.406140       17.357040       35.083010
  C          -19.237770       16.868320       35.035090
  C          -14.520150       16.290280       35.124970
  C          -13.147090       16.306690       35.147790
  C          -12.454300       15.064240       35.173890
  C           -5.378390       17.341230       35.119010
  C          -18.005940       17.551710       35.055840
  C          -11.907850        6.514580       35.203270
  C          -33.055560       18.766270       35.194240
  C          -20.452570       18.978940       35.059720
  C          -26.952060       29.838920       35.212440
  H          -14.061550        6.357550       35.106430
  H           -9.299970       11.222410       35.145850
  H           -4.146520       15.572270       35.021840
  H          -10.743370       17.215830       35.236670
  H          -17.073600       19.503230       35.085350
  H          -15.207590       12.964440       35.162650
  H          -24.800660       30.000630       35.318050
  H          -29.365850       25.013250       35.296700
  H          -34.290880       20.534250       35.300920
  H          -27.688320       19.094960       34.957720
  H          -21.382470       17.025400       35.029200
  H          -23.385040       23.509340       35.109440
  H          -32.121020       16.819160       35.081800
  H          -30.267650       23.365000       35.388460
  H          -29.102250       30.032990       35.110710
  H          -24.362180       25.131700       35.151340
  H          -19.212330       20.750500       35.091840
  H          -25.817130       19.129610       35.092040
  H           -6.314820       19.283390       35.236670
  H           -8.327820       12.829380       35.093780
  H           -9.759710        6.322900       35.295760
  H          -14.306860       11.328540       35.196650
  H          -19.246000       15.779640       35.037230
  H          -12.620370       17.253810       35.114730
  B          -32.892890       17.509370       38.520250
  B          -22.910490       17.384090       38.375220
  B          -27.776310       26.066250       38.605050
  B           -7.855160       14.508880       38.458010
  B          -17.810880       14.397890       38.448980
  B          -12.719460        5.803480       38.539530
  O          -11.572440        6.616670       38.552310
  C          -13.926950        3.559610       38.528620
  C          -12.054530        7.912740       38.520990
  C          -11.348350        9.091470       38.508270
  C          -12.070570       10.313250       38.503590
  O           -9.131700       15.094690       38.535110
  C           -5.301390       14.623320       38.410630
  C          -10.016810       14.031290       38.523000
  C          -11.388510       14.051090       38.549770
  C          -12.084300       12.813570       38.519580
  O          -17.694610       12.995000       38.486120
  C          -19.150220       16.575940       38.411230
  C          -16.329360       12.747510       38.504530
  C          -15.668570       11.543200       38.522390
  C          -14.245730       11.549280       38.523600
  O          -28.949850       25.287630       38.608800
  C          -26.536140       28.309100       38.603240
  C          -28.510900       23.976510       38.631620
  C          -29.250820       22.819480       38.629940
  C          -28.562030       21.577230       38.593670
  O          -31.636450       16.892690       38.383320
  C          -35.459650       17.413770       38.561950
  C          -30.718820       17.926980       38.436190
  C          -29.348470       17.867300       38.385600
  C          -28.613820       19.079690       38.466040
  O          -23.006700       18.785720       38.431440
  C          -21.576780       15.195220       38.344100
  C          -24.365950       19.052810       38.444090
  C          -25.001840       20.267280       38.500110
  C          -26.423820       20.287560       38.506870
  O          -32.760720       18.904280       38.648420
  C          -34.225320       15.332310       38.443220
  C          -31.399150       19.142900       38.578010
  C          -30.727070       20.339800       38.634960
  C          -29.308630       20.324680       38.566300
  O          -26.629600       25.253050       38.638580
  C          -28.959120       28.327290       38.535310
  C          -27.110400       23.955340       38.633760
  C          -26.407550       22.779120       38.601230
  C          -27.134180       21.558710       38.566500
  O          -24.185970       16.789490       38.352540
  C          -20.350620       17.282830       38.388810
  C          -25.079130       17.850420       38.388880
  C          -26.452930       17.824330       38.391820
  C          -27.154690       19.060350       38.448110
  O           -7.945300       13.104700       38.406480
  C           -6.536470       16.705100       38.527080
  C           -9.300530       12.830000       38.458080
  C           -9.935590       11.611060       38.451450
  C          -11.355160       11.585690       38.492950
  O          -13.892260        6.579690       38.512290
  C          -11.505140        3.542440       38.600970
  C          -13.454340        7.892480       38.511150
  C          -14.190200        9.051640       38.523670
  C          -13.501040       10.293460       38.524400
  O          -16.544640       15.010300       38.452390
  C          -20.375670       14.489080       38.364850
  C          -15.638730       13.963540       38.489800
  C          -14.267410       14.016560       38.490810
  C          -13.542370       12.793940       38.517840
  C           -6.537910       15.297990       38.454670
  C          -19.140570       15.167200       38.406610
  C          -12.711490        4.269170       38.561140
  C          -34.222640       16.739390       38.520050
  C          -21.585770       16.604760       38.363110
  C          -27.753640       27.600120       38.574130
  H          -14.863750        4.113300       38.500380
  H          -10.264630        9.062710       38.507800
  H           -5.291360       13.535970       38.367730
  H          -11.905390       15.003190       38.580890
  H          -18.206170       17.116880       38.421740
  H          -16.237680       10.621340       38.553920
  H          -25.597890       27.757520       38.626660
  H          -30.333190       22.876520       38.637770
  H          -35.471680       18.500760       38.606320
  H          -28.858100       16.904960       38.298190
  H          -22.522090       14.656340       38.329710
  H          -24.414220       21.178180       38.527080
  H          -33.277110       14.799150       38.414040
  H          -31.283680       21.262510       38.745730
  H          -29.904420       27.787780       38.526340
  H          -25.324440       22.808770       38.577940
  H          -20.337520       18.371250       38.379240
  H          -26.970120       16.871830       38.377970
  H           -7.485340       17.237090       38.557330
  H           -9.346090       10.702690       38.403670
  H          -10.560790        4.083380       38.611470
  H          -15.272310        8.997520       38.551570
  H          -20.388160       13.401410       38.364850
  H          -13.772020       14.979650       38.442420
  B          -33.966210       15.549570       41.885620
  B          -24.011080       15.734660       41.755650
  B          -29.163560       24.292930       41.933340
  B           -8.938690       12.572170       41.819760
  B          -18.911720       12.761460       41.765760
  B          -14.104540        4.041570       41.875850
  O          -12.926210        4.813600       41.884420
  C          -15.351730        1.796270       41.840240
  C          -13.356360        6.126650       41.850950
  C          -12.608730        7.279020       41.841180
  C          -13.288580        8.525940       41.847810
  O          -10.192860       13.201980       41.895460
  C           -6.374070       12.650790       41.764480
  C          -11.114900       12.170560       41.886290
  C          -12.484610       12.238800       41.907300
  C          -13.223040       11.026590       41.875920
  O          -18.825920       11.358830       41.787640
  C          -20.244340       14.952760       41.771850
  C          -17.468310       11.082710       41.818020
  C          -16.840810        9.862840       41.842650
  C          -15.419090        9.831640       41.861120
  O          -30.304610       23.469890       41.936550
  C          -27.965150       26.543640       41.961650
  C          -29.814520       22.176380       41.960110
  C          -30.509780       20.989990       41.971220
  C          -29.777770       19.774060       41.936420
  O          -32.687820       14.975710       41.767160
  C          -36.516080       15.439720       41.935810
  C          -31.807230       16.042700       41.805170
  C          -30.435650       16.033320       41.747020
  C          -29.747000       17.274190       41.820970
  O          -24.136460       17.136290       41.768630
  C          -22.667430       13.561940       41.726400
  C          -25.503820       17.374310       41.776530
  C          -26.173680       18.573830       41.806850
  C          -27.595960       18.556230       41.827930
  O          -33.882130       16.951500       41.988080
  C          -35.292850       13.351360       41.802830
  C          -32.529400       17.235550       41.931800
  C          -31.900460       18.456440       41.983200
  C          -30.483130       18.494670       41.916740
  O          -27.985510       23.521950       41.946590
  C          -30.383220       26.561620       41.839910
  C          -28.414800       22.206390       41.947120
  C          -27.669850       21.053880       41.898600
  C          -28.348510       19.806030       41.883480
  O          -25.271820       15.112590       41.746950
  C          -21.447310       15.654100       41.775730
  C          -26.185340       16.152900       41.758330
  C          -27.555700       16.089260       41.769370
  C          -28.289840       17.305810       41.798750
  O           -9.075270       11.173030       41.772920
  C           -7.595540       14.738620       41.894860
  C          -10.439130       10.945440       41.825790
  C          -11.113730        9.749260       41.820900
  C          -12.533740        9.774040       41.849410
  O          -15.244580        4.862880       41.833150
  C          -12.932030        1.776030       41.956160
  C          -14.756190        6.157540       41.838240
  C          -15.451130        7.339440       41.856910
  C          -14.716230        8.555000       41.863070
  O          -17.633330       13.348840       41.775590
  C          -21.464960       12.860130       41.727670
  C          -16.747350       12.282090       41.817560
  C          -15.374280       12.298500       41.840380
  C          -14.681490       11.056040       41.866480
  C           -7.605580       13.333030       41.811600
  C          -20.233130       13.543520       41.748420
  C          -14.135040        2.506380       41.895860
  C          -35.282750       14.758080       41.886820
  C          -22.679760       14.970750       41.752300
  C          -29.179250       25.830730       41.905030
  H          -16.288740        2.349360       41.799020
  H          -11.527160        7.214220       41.838440
  H           -6.373710       11.564070       41.714420
  H          -12.970560       13.207640       41.929260
  H          -19.300790       15.495040       41.777940
  H          -17.434780        8.956250       41.855240
  H          -27.027850       25.992440       42.010640
  H          -31.593050       21.005060       41.989290
  H          -36.518070       16.526060       41.993500
  H          -29.915510       15.086760       41.650310
  H          -23.609670       13.017210       41.721790
  H          -25.612230       19.501150       41.802030
  H          -34.348210       12.810970       41.774390
  H          -32.494840       19.356800       42.081040
  H          -31.329440       26.024800       41.803300
  H          -26.589370       21.123510       41.843920
  H          -21.439520       16.742310       41.784430
  H          -28.044330       15.121420       41.784630
  H           -8.542010       15.275190       41.929260
  H          -10.555020        8.821180       41.786370
  H          -11.986900        2.314700       41.988350
  H          -16.534060        7.320350       41.889230
  H          -21.473190       11.771450       41.729820
  H          -14.847560       13.245620       41.807320
  B          -35.120080       13.501180       45.212840
  B          -25.137680       13.375890       45.067810
  B          -30.003510       22.058060       45.297630
  B          -10.082350       10.500690       45.150600
  B          -20.038070       10.389690       45.141560
  B          -14.946660        1.795290       45.232110
  O          -13.799640        2.608480       45.244900
  C          -16.154140       -0.448580       45.221200
  C          -14.281720        3.904550       45.213580
  C          -13.575550        5.083280       45.200860
  C          -14.297770        6.305060       45.196170
  O          -11.358890       11.086500       45.227700
  C           -7.528580       10.615130       45.103210
  C          -12.244010       10.023090       45.215580
  C          -13.615700       10.042900       45.242350
  C          -14.311490        8.805370       45.212170
  O          -19.921800        8.986810       45.178710
  C          -21.377410       12.567750       45.103820
  C          -18.556560        8.739320       45.197110
  C          -17.895770        7.535010       45.214980
  C          -16.472930        7.541090       45.216190
  O          -31.177040       21.279430       45.301380
  C          -28.763330       24.300910       45.295830
  C          -30.738100       19.968310       45.324200
  C          -31.478020       18.811280       45.322530
  C          -30.789230       17.569040       45.286260
  O          -33.863640       12.884500       45.075910
  C          -37.686840       13.405580       45.254530
  C          -32.946010       13.918780       45.128780
  C          -31.575660       13.859100       45.078180
  C          -30.841010       15.071490       45.158630
  O          -25.233890       14.777530       45.124030
  C          -23.803970       11.187030       45.036690
  C          -26.593140       15.044620       45.136680
  C          -27.229040       16.259080       45.192690
  C          -28.651020       16.279360       45.199450
  O          -34.987910       14.896090       45.341000
  C          -36.452510       11.324120       45.135810
  C          -33.626340       15.134710       45.270600
  C          -32.954260       16.331610       45.327550
  C          -31.535820       16.316490       45.258880
  O          -28.856800       21.244860       45.331160
  C          -31.186310       24.319100       45.227900
  C          -29.337600       19.947150       45.326350
  C          -28.634740       18.770930       45.293820
  C          -29.361370       17.550520       45.259080
  O          -26.413160       12.781300       45.045120
  C          -22.577820       13.274630       45.081400
  C          -27.306320       13.842230       45.081460
  C          -28.680120       13.816140       45.084410
  C          -29.381890       15.052150       45.140690
  O          -10.172500        9.096500       45.099070
  C           -8.763660       12.696910       45.219670
  C          -11.527720        8.821800       45.150670
  C          -12.162780        7.602870       45.144040
  C          -13.582350        7.577500       45.185530
  O          -16.119450        2.571500       45.204880
  C          -13.732330       -0.465750       45.293550
  C          -15.681540        3.884290       45.203740
  C          -16.417390        5.043450       45.216250
  C          -15.728240        6.285270       45.216990
  O          -18.771830       11.002110       45.144980
  C          -22.602860       10.480880       45.057440
  C          -17.865930        9.955340       45.182390
  C          -16.494600       10.008370       45.183390
  C          -15.769570        8.785750       45.210430
  C           -8.765100       11.289800       45.147250
  C          -21.367770       11.159010       45.099200
  C          -14.938680        0.260970       45.253730
  C          -36.449830       12.731200       45.212640
  C          -23.812970       12.596570       45.055700
  C          -29.980830       23.591930       45.266710
  H          -17.090950        0.105100       45.192960
  H          -12.491820        5.054520       45.200390
  H           -7.518550        9.527780       45.060320
  H          -14.132580       10.994990       45.273470
  H          -20.433360       13.108690       45.114320
  H          -18.464870        6.613150       45.246500
  H          -27.825080       23.749330       45.319250
  H          -32.560380       18.868330       45.330360
  H          -37.698870       14.492570       45.298910
  H          -31.085290       12.896770       44.990780
  H          -24.749290       10.648150       45.022300
  H          -26.641410       17.169980       45.219670
  H          -35.504300       10.790960       45.106630
  H          -33.510870       17.254320       45.438310
  H          -32.131620       23.779590       45.218930
  H          -27.551630       18.800570       45.270530
  H          -22.564710       14.363060       45.071830
  H          -29.197310       12.863640       45.070550
  H           -9.712530       13.228900       45.249920
  H          -11.573280        6.694500       45.096250
  H          -12.787990        0.075190       45.304060
  H          -17.499500        4.989330       45.244160
  H          -22.615350        9.393220       45.057440
  H          -15.999210       10.971460       45.135000
  B           24.539310       13.440390        1.730100
  B           34.494440       13.625480        1.600130
  B           29.341950       22.183750        1.777820
  B           49.566830       10.462990        1.664250
  B           39.593800       10.652290        1.610240
  B           44.400980        1.932390        1.720330
  O           45.579300        2.704420        1.728900
  C           43.153790       -0.312910        1.684720
  C           45.149160        4.017470        1.695430
  C           45.896790        5.169840        1.685660
  C           45.216940        6.416760        1.692290
  O           48.312650       11.092800        1.739940
  C           52.131440       10.541610        1.608960
  C           47.390620       10.061380        1.730770
  C           46.020910       10.129620        1.751780
  C           45.282480        8.917410        1.720400
  O           39.679600        9.249650        1.632120
  C           38.261170       12.843580        1.616330
  C           41.037210        8.973530        1.662510
  C           41.664700        7.753660        1.687130
  C           43.086430        7.722460        1.705610
  O           28.200910       21.360710        1.781030
  C           30.540360       24.434460        1.806130
  C           28.690990       20.067200        1.804590
  C           27.995730       18.880810        1.815700
  C           28.727750       17.664880        1.780900
  O           25.817700       12.866530        1.611640
  C           21.989430       13.330550        1.780290
  C           26.698290       13.933520        1.649660
  C           28.069870       13.924150        1.591500
  C           28.758520       15.165010        1.665450
  O           34.369050       15.027110        1.613110
  C           35.838090       11.452760        1.570880
  C           33.001700       15.265130        1.621010
  C           32.331830       16.464650        1.651330
  C           30.909560       16.447050        1.672410
  O           24.623390       14.842320        1.832560
  C           23.212670       11.242190        1.647310
  C           25.976120       15.126370        1.776280
  C           26.605050       16.347260        1.827680
  C           28.022390       16.385490        1.761220
  O           30.520010       21.412770        1.791070
  C           28.122290       24.452440        1.684390
  C           30.090720       20.097210        1.791610
  C           30.835670       18.944700        1.743080
  C           30.157000       17.696850        1.727960
  O           33.233700       13.003410        1.591430
  C           37.058200       13.544920        1.620210
  C           32.320180       14.043720        1.602810
  C           30.949810       13.980080        1.613850
  C           30.215680       15.196630        1.643230
  O           49.430250        9.063850        1.617400
  C           50.909980       12.629440        1.739340
  C           48.066390        8.836260        1.670270
  C           47.391790        7.640080        1.665380
  C           45.971780        7.664860        1.693890
  O           43.260940        2.753700        1.677630
  C           45.573490       -0.333150        1.800640
  C           43.749320        4.048370        1.682720
  C           43.054380        5.230260        1.701390
  C           43.789290        6.445820        1.707550
  O           40.872180       11.239660        1.620070
  C           37.040550       10.750950        1.572160
  C           41.758170       10.172910        1.662040
  C           43.131230       10.189320        1.684860
  C           43.824020        8.946860        1.710960
  C           50.899940       11.223860        1.656080
  C           38.272390       11.434340        1.592900
  C           44.370480        0.397200        1.740340
  C           23.222760       12.648900        1.731310
  C           35.825750       12.861570        1.596780
  C           29.326270       23.721550        1.749510
  H           42.216780        0.240180        1.643500
  H           46.978350        5.105040        1.682920
  H           52.131800        9.454890        1.558900
  H           45.534960       11.098460        1.773740
  H           39.204730       13.385860        1.622420
  H           41.070740        6.847070        1.699720
  H           31.477670       23.883260        1.855120
  H           26.912470       18.895880        1.833770
  H           21.987440       14.416880        1.837990
  H           28.590000       12.977580        1.494790
  H           34.895850       10.908030        1.566270
  H           32.893290       17.391970        1.646510
  H           24.157310       10.701790        1.618870
  H           26.010680       17.247620        1.925520
  H           27.176070       23.915620        1.647780
  H           31.916150       19.014330        1.688410
  H           37.066000       14.633130        1.628910
  H           30.461190       13.012240        1.629110
  H           49.963510       13.166010        1.773740
  H           47.950500        6.712000        1.630850
  H           46.518610        0.205520        1.832830
  H           41.971460        5.211170        1.733710
  H           37.032320        9.662270        1.574300
  H           43.657960       11.136440        1.651800
  B           23.385440       11.392000        5.057320
  B           33.367840       11.266710        4.912290
  B           28.502010       19.948880        5.142120
  B           48.423170        8.391510        4.995080
  B           38.467440        8.280510        4.986040
  B           43.558860       -0.313890        5.076590
  O           44.705880        0.499300        5.089380
  C           42.351370       -2.557760        5.065690
  C           44.223800        1.795370        5.058060
  C           44.929970        2.974100        5.045340
  C           44.207750        4.195880        5.040660
  O           47.146620        8.977320        5.072180
  C           50.976940        8.505950        4.947700
  C           46.261510        7.913910        5.060060
  C           44.889820        7.933720        5.086830
  C           44.194030        6.696190        5.056650
  O           38.583720        6.877630        5.023190
  C           37.128110       10.458570        4.948300
  C           39.948960        6.630140        5.041590
  C           40.609750        5.425830        5.059460
  C           42.032590        5.431910        5.060670
  O           27.328470       19.170250        5.145860
  C           29.742180       22.191730        5.140310
  C           27.767420       17.859130        5.168680
  C           27.027500       16.702110        5.167010
  C           27.716290       15.459860        5.130740
  O           24.641880       10.775320        4.920390
  C           20.818680       11.296400        5.099010
  C           25.559510       11.809610        4.973260
  C           26.929860       11.749920        4.922670
  C           27.664510       12.962310        5.003110
  O           33.271630       12.668350        4.968510
  C           34.701540        9.077850        4.881170
  C           31.912380       12.935440        4.981160
  C           31.276480       14.149900        5.037180
  C           29.854500       14.170180        5.043930
  O           23.517610       12.786910        5.185480
  C           22.053000        9.214940        4.980290
  C           24.879170       13.025530        5.115080
  C           25.551260       14.222430        5.172030
  C           26.969700       14.207310        5.103360
  O           29.648720       19.135680        5.175640
  C           27.319210       22.209920        5.072380
  C           29.167920       17.837970        5.170830
  C           29.870780       16.661750        5.138300
  C           29.144150       15.441340        5.103570
  O           32.092350       10.672120        4.889600
  C           35.927700       11.165450        4.925880
  C           31.199190       11.733050        4.925940
  C           29.825400       11.706960        4.928890
  C           29.123630       12.942970        4.985170
  O           48.333020        6.987320        4.943550
  C           49.741860       10.587730        5.064150
  C           46.977790        6.712630        4.995150
  C           46.342740        5.493690        4.988520
  C           44.923170        5.468320        5.030010
  O           42.386060        0.462320        5.049360
  C           44.773190       -2.574930        5.138030
  C           42.823980        1.775110        5.048220
  C           42.088130        2.934270        5.060730
  C           42.777280        4.176090        5.061470
  O           39.733690        8.892930        4.989460
  C           35.902660        8.371700        4.901920
  C           40.639590        7.846160        5.026870
  C           42.010910        7.899190        5.027870
  C           42.735950        6.676570        5.054910
  C           49.740420        9.180620        4.991730
  C           37.137750        9.049830        4.943680
  C           43.566840       -1.848210        5.098210
  C           22.055690       10.622020        5.057120
  C           34.692550       10.487390        4.900180
  C           28.524680       21.482750        5.111200
  H           41.414570       -2.004080        5.037440
  H           46.013700        2.945340        5.044870
  H           50.986970        7.418600        4.904800
  H           44.372940        8.885810        5.117950
  H           38.072150       10.999510        4.958810
  H           40.040650        4.503970        5.090980
  H           30.680440       21.640150        5.163730
  H           25.945140       16.759150        5.174840
  H           20.806650       12.383390        5.143390
  H           27.420220       10.787590        4.835260
  H           33.756230        8.538970        4.866780
  H           31.864100       15.060800        5.064150
  H           23.001210        8.681780        4.951110
  H           24.994650       15.145140        5.282790
  H           26.373900       21.670410        5.063410
  H           30.953880       16.691400        5.115010
  H           35.940810       12.253880        4.916310
  H           29.308210       10.754460        4.915040
  H           48.792990       11.119720        5.094400
  H           46.932240        4.585320        4.940740
  H           45.717530       -2.033990        5.148540
  H           41.006010        2.880150        5.088640
  H           35.890170        7.284040        4.901920
  H           42.506300        8.862280        4.979490
  B           22.312120        9.432200        8.422690
  B           32.267240        9.617280        8.292720
  B           27.114760       18.175560        8.470410
  B           47.339630        6.454800        8.356830
  B           37.366610        6.644090        8.302820
  B           42.173780       -2.075810        8.412920
  O           43.352110       -1.303770        8.421480
  C           40.926600       -4.321100        8.377310
  C           42.921970        0.009280        8.388020
  C           43.669600        1.161650        8.378250
  C           42.989750        2.408570        8.384870
  O           46.085460        7.084610        8.432530
  C           49.904250        6.533420        8.301550
  C           45.163420        6.053180        8.423360
  C           43.793720        6.121430        8.444370
  C           43.055290        4.909220        8.412980
  O           37.452410        5.241450        8.324710
  C           36.033980        8.835390        8.308910
  C           38.810010        4.965340        8.355090
  C           39.437510        3.745470        8.379720
  C           40.859230        3.714270        8.398190
  O           25.973710       17.352520        8.473620
  C           28.313170       20.426270        8.498710
  C           26.463800       16.059010        8.497180
  C           25.768540       14.872610        8.508290
  C           26.500560       13.656690        8.473480
  O           23.590500        8.858340        8.304230
  C           19.762240        9.322350        8.472880
  C           24.471090        9.925330        8.342240
  C           25.842680        9.915950        8.284080
  C           26.531330       11.156820        8.358040
  O           32.141860       11.018920        8.305700
  C           33.610900        7.444560        8.263470
  C           30.774500       11.256940        8.313600
  C           30.104640       12.456450        8.343920
  C           28.682370       12.438860        8.365000
  O           22.396200       10.834130        8.525150
  C           20.985470        7.233990        8.339900
  C           23.748930       11.118170        8.468870
  C           24.377860       12.339070        8.520270
  C           25.795190       12.377300        8.453810
  O           28.292810       17.404580        8.483660
  C           25.895100       20.444240        8.376980
  C           27.863520       16.089020        8.484190
  C           28.608480       14.936510        8.435670
  C           27.929810       13.688660        8.420550
  O           31.006510        8.995220        8.284020
  C           34.831010        9.536730        8.312790
  C           30.092980       10.035520        8.295390
  C           28.722620        9.971880        8.306440
  C           27.988490       11.188440        8.335820
  O           47.203060        5.055650        8.309980
  C           48.682790        8.621250        8.431920
  C           45.839200        4.828060        8.362860
  C           45.164590        3.631890        8.357970
  C           43.744590        3.656670        8.386480
  O           41.033740       -1.254500        8.370220
  C           43.346290       -4.341350        8.493230
  C           41.522130        0.040170        8.375300
  C           40.827190        1.222070        8.393980
  C           41.562100        2.437620        8.400130
  O           38.644990        7.231470        8.312660
  C           34.813360        6.742760        8.264740
  C           39.530980        6.164710        8.354620
  C           40.904040        6.181130        8.377450
  C           41.596830        4.938670        8.403550
  C           48.672750        7.215660        8.348670
  C           36.045200        7.426140        8.285490
  C           42.143280       -3.610990        8.432930
  C           20.995570        8.640710        8.423890
  C           33.598560        8.853370        8.289370
  C           27.099070       19.713360        8.442100
  H           39.989580       -3.768010        8.336090
  H           44.751160        1.096850        8.375500
  H           49.904610        5.446700        8.251490
  H           43.307760        7.090270        8.466320
  H           36.977540        9.377670        8.315000
  H           38.843540        2.838870        8.392300
  H           29.250470       19.875070        8.547700
  H           24.685280       14.887690        8.526360
  H           19.760250       10.408690        8.530570
  H           26.362810        8.969390        8.187380
  H           32.668660        6.899830        8.258850
  H           30.666090       13.383780        8.339100
  H           21.930120        6.693590        8.311460
  H           23.783480       13.239430        8.618110
  H           24.948880       19.907430        8.340370
  H           29.688960       15.006140        8.380990
  H           34.838810       10.624930        8.321500
  H           28.234000        9.004040        8.321700
  H           47.736310        9.157820        8.466320
  H           45.723310        2.703810        8.323440
  H           44.291420       -3.802670        8.525420
  H           39.744270        1.202970        8.426300
  H           34.805130        5.654070        8.266880
  H           41.430770        7.128240        8.344380
  B           21.158250        7.383810       11.749910
  B           31.140640        7.258520       11.604880
  B           26.274820       15.940690       11.834700
  B           46.195970        4.383310       11.687670
  B           36.240250        4.272320       11.678630
  B           41.331670       -4.322080       11.769180
  O           42.478690       -3.508890       11.781960
  C           40.124180       -6.565950       11.758270
  C           41.996600       -2.212820       11.750640
  C           42.702780       -1.034100       11.737930
  C           41.980560        0.187690       11.733240
  O           44.919430        4.969130       11.764760
  C           48.749740        4.497750       11.640280
  C           44.034320        3.905720       11.752650
  C           42.662630        3.925520       11.779420
  C           41.966840        2.688000       11.749240
  O           36.356530        2.869440       11.715770
  C           34.900920        6.450370       11.640880
  C           37.721770        2.621940       11.734180
  C           38.382560        1.417640       11.752050
  C           39.805400        1.423720       11.753250
  O           25.101280       15.162060       11.838450
  C           27.514990       18.183540       11.832890
  C           25.540230       13.850940       11.861270
  C           24.800310       12.693910       11.859600
  C           25.489100       11.451670       11.823320
  O           22.414690        6.767120       11.612980
  C           18.591480        7.288210       11.791600
  C           23.332310        7.801410       11.665850
  C           24.702670        7.741730       11.615250
  C           25.437310        8.954120       11.695700
  O           31.044440        8.660160       11.661100
  C           32.474350        5.069660       11.573760
  C           29.685180        8.927250       11.673740
  C           29.049290       10.141710       11.729760
  C           27.627310       10.161990       11.736520
  O           21.290420        8.778720       11.878070
  C           19.825810        5.206740       11.672870
  C           22.651980        9.017330       11.807660
  C           23.324070       10.214230       11.864620
  C           24.742500       10.199120       11.795950
  O           27.421530       15.127480       11.868230
  C           25.092010       18.201720       11.764960
  C           26.940730       13.829780       11.863410
  C           27.643590       12.653560       11.830890
  C           26.916950       11.433150       11.796150
  O           29.865160        6.663930       11.582190
  C           33.700510        7.157260       11.618460
  C           28.972000        7.724860       11.618530
  C           27.598210        7.698760       11.621480
  C           26.896440        8.934780       11.677760
  O           46.105830        2.979130       11.636130
  C           47.514670        6.579530       11.756730
  C           44.750600        2.704430       11.687730
  C           44.115550        1.485500       11.681110
  C           42.695980        1.460120       11.722600
  O           40.158870       -3.545870       11.741940
  C           42.545990       -6.583120       11.830620
  C           40.596790       -2.233090       11.740800
  C           39.860940       -1.073920       11.753320
  C           40.550090        0.167900       11.754060
  O           37.506500        4.884740       11.682040
  C           33.675470        4.363510       11.594500
  C           38.412400        3.837970       11.719460
  C           39.783720        3.890990       11.720460
  C           40.508760        2.668380       11.747500
  C           47.513220        5.172420       11.684320
  C           34.910560        5.041640       11.636270
  C           41.339640       -5.856400       11.790800
  C           19.828500        6.613820       11.749710
  C           32.465360        6.479190       11.592760
  C           26.297490       17.474560       11.803780
  H           39.187380       -6.012270       11.730030
  H           43.786500       -1.062850       11.737460
  H           48.759770        3.410410       11.597380
  H           42.145740        4.877620       11.810540
  H           35.844960        6.991310       11.651390
  H           37.813460        0.495770       11.783570
  H           28.453250       17.631950       11.856320
  H           23.717950       12.750960       11.867430
  H           18.579460        8.375190       11.835970
  H           25.193030        6.779390       11.527850
  H           31.529040        4.530780       11.559370
  H           29.636910       11.052610       11.756730
  H           20.774020        4.673590       11.643700
  H           22.767450       11.136950       11.975380
  H           24.146710       17.662220       11.756000
  H           28.726690       12.683200       11.807600
  H           33.713620        8.245680       11.608890
  H           27.081020        6.746270       11.607620
  H           46.565800        7.111530       11.786980
  H           44.705050        0.577120       11.633320
  H           43.490340       -6.042180       11.841130
  H           38.778820       -1.128040       11.781230
  H           33.662980        3.275850       11.594500
  H           40.279110        4.854090       11.672070
  B           20.084920        5.424000       15.115270
  B           30.040050        5.609090       14.985300
  B           24.887570       14.167360       15.162990
  B           45.112440        2.446600       15.049420
  B           35.139420        2.635900       14.995410
  B           39.946590       -6.084000       15.105500
  O           41.124920       -5.311970       15.114070
  C           38.699400       -8.329300       15.069900
  C           40.694780       -3.998920       15.080610
  C           41.442400       -2.846550       15.070830
  C           40.762560       -1.599620       15.077460
  O           43.858270        3.076420       15.125110
  C           47.677060        2.525230       14.994140
  C           42.936230        2.044990       15.115940
  C           41.566520        2.113240       15.136960
  C           40.828100        0.901020       15.105570
  O           35.225210        1.233260       15.017290
  C           33.806790        4.827200       15.001500
  C           36.582820        0.957140       15.047680
  C           37.210320       -0.262720       15.072310
  C           38.632040       -0.293930       15.090780
  O           23.746520       13.344330       15.166200
  C           26.085980       16.418070       15.191300
  C           24.236610       12.050810       15.189760
  C           23.541350       10.864420       15.200870
  C           24.273370        9.648500       15.166070
  O           21.363310        4.850150       14.996810
  C           17.535050        5.314160       15.165470
  C           22.243900        5.917140       15.034830
  C           23.615480        5.907760       14.976670
  C           24.304130        7.148630       15.050620
  O           29.914670        7.010730       14.998290
  C           31.383710        3.436370       14.956060
  C           28.547310        7.248750       15.006180
  C           27.877450        8.448260       15.036500
  C           26.455180        8.430660       15.057580
  O           20.169010        6.825940       15.217740
  C           18.758280        3.225800       15.032490
  C           21.521740        7.109980       15.161450
  C           22.150670        8.330870       15.212850
  C           23.568000        8.369110       15.146390
  O           26.065620       13.396390       15.176240
  C           23.667910       16.436050       15.069560
  C           25.636330       12.080830       15.176780
  C           26.381280       10.928310       15.128260
  C           25.702620        9.680460       15.113130
  O           28.779310        4.987030       14.976600
  C           32.603820        5.528530       15.005380
  C           27.865790        6.027330       14.987980
  C           26.495430        5.963690       14.999020
  C           25.761290        7.180250       15.028400
  O           44.975870        1.047460       15.002570
  C           46.455590        4.613060       15.124510
  C           43.612010        0.819870       15.055440
  C           42.937400       -0.376300       15.050560
  C           41.517400       -0.351520       15.079070
  O           38.806550       -5.262690       15.062800
  C           41.119100       -8.349540       15.185810
  C           39.294940       -3.968020       15.067890
  C           38.600000       -2.786120       15.086560
  C           39.334910       -1.570570       15.092720
  O           36.417800        3.223280       15.005250
  C           32.586170        2.734560       14.957330
  C           37.303790        2.156520       15.047210
  C           38.676850        2.172940       15.070030
  C           39.369640        0.930480       15.096130
  C           46.445550        3.207470       15.041250
  C           33.818000        3.417950       14.978080
  C           39.916090       -7.619180       15.125510
  C           18.768380        4.632520       15.116480
  C           31.371370        4.845180       14.981960
  C           24.871880       15.705160       15.134680
  H           37.762390       -7.776210       15.028670
  H           42.523970       -2.911340       15.068090
  H           47.677420        1.438510       14.944080
  H           41.080570        3.082070       15.158910
  H           34.750340        5.369470       15.007590
  H           36.616350       -1.169320       15.084890
  H           27.023280       15.866880       15.240290
  H           22.458090       10.879490       15.218940
  H           17.533060        6.400490       15.223160
  H           24.135620        4.961200       14.879960
  H           30.441470        2.891640       14.951440
  H           28.438900        9.375580       15.031680
  H           19.702920        2.685400       15.004040
  H           21.556290        9.231240       15.310700
  H           22.721690       15.899230       15.032950
  H           27.461760       10.997940       15.073580
  H           32.611610        6.616740       15.014080
  H           26.006810        4.995850       15.014280
  H           45.509120        5.149630       15.158910
  H           43.496120       -1.304380       15.016020
  H           42.064230       -7.810860       15.218000
  H           37.517080       -2.805220       15.118890
  H           32.577940        1.645880       14.959470
  H           39.203570        3.120050       15.036970
  B           18.931050        3.375610       18.442490
  B           28.913450        3.250330       18.297460
  B           24.047630       11.932490       18.527290
  B           43.968780        0.375120       18.380250
  B           34.013060        0.264130       18.371220
  B           39.104480       -8.330280       18.461770
  O           40.251500       -7.517080       18.474550
  C           37.896990      -10.574150       18.450860
  C           39.769410       -6.221010       18.443230
  C           40.475590       -5.042290       18.430510
  C           39.753370       -3.820510       18.425830
  O           42.692240        0.960930       18.457350
  C           46.522550        0.489560       18.332870
  C           41.807130       -0.102470       18.445240
  C           40.435430       -0.082670       18.472010
  C           39.739640       -1.320190       18.441820
  O           34.129340       -1.138750       18.408360
  C           32.673720        2.442180       18.333470
  C           35.494580       -1.386250       18.426770
  C           36.155370       -2.590560       18.444630
  C           37.578210       -2.584480       18.445840
  O           22.874090       11.153870       18.531040
  C           25.287800       14.175340       18.525480
  C           23.313040        9.842750       18.553860
  C           22.573120        8.685720       18.552180
  C           23.261910        7.443470       18.515910
  O           20.187490        2.758930       18.305560
  C           16.364290        3.280010       18.484190
  C           21.105120        3.793220       18.358430
  C           22.475480        3.733540       18.307840
  C           23.210120        4.945930       18.388280
  O           28.817240        4.651970       18.353680
  C           30.247160        1.061460       18.266340
  C           27.457990        4.919050       18.366330
  C           26.822100        6.133520       18.422350
  C           25.400120        6.153800       18.429110
  O           19.063220        4.770520       18.570660
  C           17.598620        1.198550       18.365460
  C           20.424790        5.009140       18.500250
  C           21.096870        6.206040       18.557200
  C           22.515310        6.190920       18.488540
  O           25.194340       11.119290       18.560820
  C           22.864820       14.193530       18.457550
  C           24.713540        9.821580       18.556000
  C           25.416400        8.645370       18.523470
  C           24.689760        7.424950       18.488740
  O           27.637970        2.655730       18.274780
  C           31.473320        3.149070       18.311050
  C           26.744810        3.716660       18.311120
  C           25.371010        3.690570       18.314060
  C           24.669250        4.926590       18.370350
  O           43.878640       -1.029060       18.328720
  C           45.287470        2.571340       18.449320
  C           42.523410       -1.303760       18.380320
  C           41.888350       -2.522700       18.373690
  C           40.468780       -2.548070       18.415190
  O           37.931680       -7.554060       18.434530
  C           40.318800      -10.591320       18.523210
  C           38.369600       -6.241280       18.433390
  C           37.633740       -5.082110       18.445910
  C           38.322900       -3.840300       18.446640
  O           35.279300        0.876540       18.374630
  C           31.448270        0.355320       18.287090
  C           36.185210       -0.170220       18.412040
  C           37.556530       -0.117200       18.413050
  C           38.281570       -1.339820       18.440080
  C           45.286030        1.164230       18.376910
  C           32.683370        1.033440       18.328850
  C           39.112450       -9.864590       18.483380
  C           17.601300        2.605630       18.442290
  C           30.238170        2.471000       18.285350
  C           24.070300       13.466360       18.496370
  H           36.960190      -10.020460       18.422620
  H           41.559310       -5.071050       18.430040
  H           46.532580       -0.597780       18.289970
  H           39.918550        0.869430       18.503130
  H           33.617770        2.983120       18.343980
  H           35.586270       -3.512420       18.476160
  H           26.226050       13.623760       18.548910
  H           21.490750        8.742760       18.560010
  H           16.352260        4.367000       18.528560
  H           22.965840        2.771200       18.220430
  H           29.301850        0.522590       18.251960
  H           27.409720        7.044420       18.449320
  H           18.546830        0.665390       18.336280
  H           20.540260        7.128750       18.667970
  H           21.919520       13.654020       18.448580
  H           26.499500        8.675010       18.500180
  H           31.486420        4.237490       18.301480
  H           24.853820        2.738070       18.300210
  H           44.338600        3.103330       18.479570
  H           42.477850       -3.431070       18.325910
  H           41.263150      -10.050380       18.533710
  H           36.551630       -5.136230       18.473810
  H           31.435790       -0.732350       18.287090
  H           38.051920        0.845890       18.364660
  B           17.857730        1.415810       21.807860
  B           27.812860        1.600900       21.677890
  B           22.660380       10.159170       21.855580
  B           42.885250       -1.561590       21.742010
  B           32.912220       -1.372290       21.688000
  B           37.719400      -10.092190       21.798090
  O           38.897730       -9.320160       21.806660
  C           36.472210      -12.337490       21.762480
  C           38.467580       -8.007110       21.773190
  C           39.215210       -6.854740       21.763420
  C           38.535360       -5.607820       21.770050
  O           41.631080       -0.931780       21.817700
  C           45.449870       -1.482970       21.686720
  C           40.709040       -1.963200       21.808530
  C           39.339330       -1.894960       21.829540
  C           38.600910       -3.107170       21.798160
  O           32.998020       -2.774930       21.709880
  C           31.579600        0.819000       21.694090
  C           34.355630       -3.051050       21.740270
  C           34.983130       -4.270920       21.764890
  C           36.404850       -4.302120       21.783370
  O           21.519330        9.336130       21.858790
  C           23.858790       12.409880       21.883890
  C           22.009420        8.042620       21.882350
  C           21.314160        6.856230       21.893460
  C           22.046170        5.640300       21.858660
  O           19.136120        0.841950       21.689400
  C           15.307860        1.305970       21.858050
  C           20.016710        1.908940       21.727420
  C           21.388290        1.899570       21.669260
  C           22.076940        3.140430       21.743210
  O           27.687480        3.002530       21.690870
  C           29.156510       -0.571820       21.648640
  C           26.320120        3.240550       21.698770
  C           25.650260        4.440070       21.729090
  C           24.227990        4.422470       21.750170
  O           17.941810        2.817740       21.910320
  C           16.531090       -0.782390       21.725070
  C           19.294540        3.101790       21.854040
  C           19.923480        4.322680       21.905440
  C           21.340810        4.360910       21.838980
  O           23.838430        9.388190       21.868830
  C           21.440720       12.427860       21.762150
  C           23.409140        8.072630       21.869370
  C           24.154090        6.920120       21.820840
  C           23.475430        5.672270       21.805720
  O           26.552120        0.978830       21.669190
  C           30.376630        1.520340       21.697970
  C           25.638600        2.019140       21.680570
  C           24.268240        1.955500       21.691610
  C           23.534100        3.172050       21.720990
  O           42.748670       -2.960730       21.695160
  C           44.228400        0.604860       21.817100
  C           41.384810       -3.188320       21.748030
  C           40.710210       -4.384490       21.743140
  C           39.290200       -4.359720       21.771650
  O           36.579360       -9.270880       21.755390
  C           38.891910      -12.357730       21.878400
  C           37.067750       -7.976210       21.760480
  C           36.372810       -6.794320       21.779150
  C           37.107710       -5.578760       21.785310
  O           34.190610       -0.784920       21.697830
  C           30.358980       -1.273630       21.649920
  C           35.076600       -1.851670       21.739800
  C           36.449660       -1.835260       21.762620
  C           37.142450       -3.077720       21.788720
  C           44.218360       -0.800720       21.733840
  C           31.590810       -0.590240       21.670660
  C           37.688900      -11.627380       21.818100
  C           16.541190        0.624320       21.809060
  C           29.144180        0.836990       21.674540
  C           22.644690       11.696970       21.827270
  H           35.535200      -11.784400       21.721260
  H           40.296780       -6.919540       21.760680
  H           45.450230       -2.569690       21.636660
  H           38.853380       -0.926120       21.851500
  H           32.523150        1.361280       21.700180
  H           34.389160       -5.177510       21.777480
  H           24.796090       11.858680       21.932880
  H           20.230890        6.871300       21.911530
  H           15.305870        2.392300       21.915740
  H           21.908430        0.953000       21.572550
  H           28.214270       -1.116550       21.644030
  H           26.211710        5.367390       21.724270
  H           17.475730       -1.322790       21.696630
  H           19.329100        5.223040       22.003280
  H           20.494500       11.891040       21.725540
  H           25.234570        6.989750       21.766170
  H           30.384420        2.608550       21.706670
  H           23.779620        0.987660       21.706870
  H           43.281930        1.141430       21.851500
  H           41.268920       -5.312580       21.708610
  H           39.837040      -11.819050       21.910590
  H           35.289880       -6.813410       21.811470
  H           30.350750       -2.362310       21.652060
  H           36.976380       -0.888140       21.729560
  B           16.703860       -0.632580       25.135080
  B           26.686260       -0.757870       24.990050
  B           21.820430        7.924300       25.219870
  B           41.741590       -3.633070       25.072840
  B           31.785870       -3.744070       25.063800
  B           36.877290      -12.338470       25.154350
  O           38.024300      -11.525280       25.167140
  C           35.669800      -14.582340       25.143450
  C           37.542220      -10.229210       25.135820
  C           38.248390       -9.050480       25.123100
  C           37.526180       -7.828700       25.118420
  O           40.465050       -3.047260       25.149940
  C           44.295360       -3.518630       25.025460
  C           39.579930       -4.110670       25.137820
  C           38.208240       -4.090860       25.164590
  C           37.512450       -5.328390       25.134410
  O           31.902140       -5.146950       25.100950
  C           30.446530       -1.566010       25.026060
  C           33.267380       -5.394440       25.119350
  C           33.928170       -6.598750       25.137220
  C           35.351010       -6.592670       25.138430
  O           20.646900        7.145670       25.223620
  C           23.060610       10.167150       25.218070
  C           21.085840        5.834550       25.246440
  C           20.345920        4.677530       25.244770
  C           21.034710        3.435280       25.208500
  O           17.960300       -1.249260       24.998150
  C           14.137100       -0.728180       25.176770
  C           18.877930       -0.214970       25.051020
  C           20.248280       -0.274660       25.000420
  C           20.982930        0.937730       25.080870
  O           26.590050        0.643770       25.046270
  C           28.019970       -2.946730       24.958930
  C           25.230800        0.910860       25.058920
  C           24.594900        2.125330       25.114930
  C           23.172920        2.145600       25.121690
  O           16.836030        0.762330       25.263240
  C           15.371430       -2.809640       25.058050
  C           18.197600        1.000950       25.192840
  C           18.869680        2.197850       25.249790
  C           20.288120        2.182730       25.181120
  O           22.967140        7.111100       25.253400
  C           20.637630       10.185340       25.150140
  C           22.486340        5.813390       25.248590
  C           23.189200        4.637170       25.216060
  C           22.462570        3.416760       25.181330
  O           25.410780       -1.352460       24.967360
  C           29.246120       -0.859130       25.003640
  C           24.517620       -0.291530       25.003700
  C           23.143820       -0.317620       25.006650
  C           22.442050        0.918390       25.062930
  O           41.651440       -5.037260       25.021310
  C           43.060280       -1.436850       25.141910
  C           40.296220       -5.311950       25.072910
  C           39.661160       -6.530890       25.066280
  C           38.241590       -6.556260       25.107770
  O           35.704490      -11.562260       25.127120
  C           38.091610      -14.599510       25.215790
  C           36.142400      -10.249470       25.125980
  C           35.406550       -9.090310       25.138490
  C           36.095700       -7.848490       25.139230
  O           33.052110       -3.131650       25.067220
  C           29.221080       -3.652880       24.979680
  C           33.958010       -4.178420       25.104630
  C           35.329340       -4.125390       25.105630
  C           36.054380       -5.348010       25.132670
  C           43.058840       -2.843960       25.069490
  C           30.456170       -2.974750       25.021440
  C           36.885260      -13.872790       25.175970
  C           15.374110       -1.402560       25.134880
  C           28.010970       -1.537190       24.977940
  C           21.843110        9.458170       25.188950
  H           34.732990      -14.028660       25.115200
  H           39.332120       -9.079240       25.122630
  H           44.305390       -4.605980       24.982560
  H           37.691360       -3.138760       25.195710
  H           31.390580       -1.025070       25.036560
  H           33.359070       -7.520610       25.168740
  H           23.998860        9.615570       25.241490
  H           19.263560        4.734570       25.252600
  H           14.125070        0.358810       25.221150
  H           20.738650       -1.236990       24.913020
  H           27.074650       -3.485610       24.944540
  H           25.182530        3.036220       25.141910
  H           16.319640       -3.342800       25.028870
  H           18.313070        3.120560       25.360550
  H           19.692320        9.645830       25.141170
  H           24.272310        4.666820       25.192770
  H           29.259230        0.229300       24.994070
  H           22.626630       -1.270120       24.992800
  H           42.111410       -0.904860       25.172160
  H           40.250660       -7.439260       25.018490
  H           39.035950      -14.058570       25.226300
  H           34.324440       -9.144430       25.166400
  H           29.208590       -4.740540       24.979680
  H           35.824730       -3.162300       25.057240
  B           15.630540       -2.592380       28.500450
  B           25.585670       -2.407290       28.370480
  B           20.433180        6.150980       28.548160
  B           40.658060       -5.569780       28.434590
  B           30.685030       -5.380490       28.380580
  B           35.492210      -14.100390       28.490680
  O           36.670530      -13.328350       28.499240
  C           34.245020      -16.345680       28.455070
  C           36.240390      -12.015300       28.465780
  C           36.988020      -10.862930       28.456010
  C           36.308170       -9.616010       28.462630
  O           39.403880       -4.939970       28.510280
  C           43.222670       -5.491160       28.379310
  C           38.481850       -5.971390       28.501120
  C           37.112140       -5.903150       28.522130
  C           36.373710       -7.115360       28.490740
  O           30.770830       -6.783130       28.402470
  C           29.352400       -3.189190       28.386670
  C           32.128440       -7.059240       28.432850
  C           32.755930       -8.279110       28.457480
  C           34.177660       -8.310310       28.475950
  O           19.292140        5.327940       28.551380
  C           21.631600        8.401690       28.576470
  C           19.782220        4.034430       28.574940
  C           19.086960        2.848030       28.586040
  C           19.818980        1.632110       28.551240
  O           16.908930       -3.166240       28.381990
  C           13.080660       -2.702230       28.550640
  C           17.789520       -2.099250       28.420000
  C           19.161100       -2.108630       28.361840
  C           19.849750       -0.867760       28.435800
  O           25.460280       -1.005660       28.383460
  C           26.929320       -4.580020       28.341230
  C           24.092930       -0.767640       28.391360
  C           23.423070        0.431870       28.421670
  C           22.000790        0.414280       28.442760
  O           15.714620       -1.190450       28.602910
  C           14.303900       -4.790590       28.417660
  C           17.067350       -0.906410       28.546630
  C           17.696290        0.314490       28.598020
  C           19.113620        0.352720       28.531570
  O           21.611240        5.380000       28.561420
  C           19.213520        8.419660       28.454740
  C           21.181950        4.064440       28.561950
  C           21.926900        2.911930       28.513430
  C           21.248230        1.664080       28.498310
  O           24.324930       -3.029360       28.361780
  C           28.149430       -2.487850       28.390550
  C           23.411410       -1.989060       28.373150
  C           22.041040       -2.052700       28.384200
  C           21.306910       -0.836140       28.413580
  O           40.521480       -6.968930       28.387740
  C           42.001210       -3.403330       28.509680
  C           39.157620       -7.196520       28.440610
  C           38.483020       -8.392690       28.435730
  C           37.063010       -8.367910       28.464240
  O           34.352170      -13.279080       28.447980
  C           36.664720      -16.365930       28.570990
  C           34.840550      -11.984410       28.453060
  C           34.145620      -10.802510       28.471740
  C           34.880520       -9.586960       28.477890
  O           31.963410       -4.793110       28.390420
  C           28.131790       -5.281820       28.342500
  C           32.849400       -5.859860       28.432380
  C           34.222460       -5.843450       28.455200
  C           34.915250       -7.085910       28.481310
  C           41.991170       -4.808920       28.426430
  C           29.363620       -4.598440       28.363250
  C           35.461710      -15.635570       28.510690
  C           14.314000       -3.383870       28.501650
  C           26.916980       -3.171210       28.367130
  C           20.417500        7.688780       28.519860
  H           33.308010      -15.792590       28.413840
  H           38.069580      -10.927730       28.453260
  H           43.223040       -6.577880       28.329250
  H           36.626190       -4.934310       28.544080
  H           30.295960       -2.646910       28.392760
  H           32.161970       -9.185710       28.470060
  H           22.568900        7.850490       28.625460
  H           18.003700        2.863110       28.604110
  H           13.078670       -1.615890       28.608330
  H           19.681230       -3.055190       28.265140
  H           25.987080       -5.124740       28.336610
  H           23.984520        1.359200       28.416860
  H           15.248540       -5.330990       28.389220
  H           17.101910        1.214850       28.695870
  H           18.267310        7.882850       28.418130
  H           23.007380        2.981560       28.458750
  H           28.157230       -1.399650       28.399250
  H           21.552420       -3.020540       28.399460
  H           41.054740       -2.866760       28.544080
  H           39.041730       -9.320770       28.401200
  H           37.609850      -15.827250       28.603180
  H           33.062690      -10.821610       28.504060
  H           28.123550       -6.370510       28.344640
  H           34.749190       -4.896340       28.422140
  B           14.476670       -4.640770       31.827670
  B           24.459070       -4.766060       31.682640
  B           19.593240        3.916110       31.912460
  B           39.514400       -7.641270       31.765430
  B           29.558670       -7.752260       31.756390
  B           34.650090      -16.346660       31.846940
  O           35.797110      -15.533470       31.859720
  C           33.442600      -18.590530       31.836030
  C           35.315030      -14.237400       31.828400
  C           36.021200      -13.058680       31.815690
  C           35.298980      -11.836890       31.811000
  O           38.237860       -7.055450       31.842520
  C           42.068170       -7.526830       31.718040
  C           37.352740       -8.118860       31.830410
  C           35.981050       -8.099060       31.857180
  C           35.285260       -9.336580       31.827000
  O           29.674950       -9.155140       31.793530
  C           28.219340       -5.574210       31.718640
  C           31.040190       -9.402640       31.811940
  C           31.700980      -10.606940       31.829810
  C           33.123820      -10.600860       31.831010
  O           18.419700        3.137480       31.916210
  C           20.833410        6.158960       31.910650
  C           18.858650        1.826360       31.939030
  C           18.118730        0.669330       31.937360
  C           18.807520       -0.572910       31.901080
  O           15.733110       -5.257460       31.690740
  C           11.909910       -4.736370       31.869360
  C           16.650740       -4.223170       31.743610
  C           18.021090       -4.282850       31.693010
  C           18.755740       -3.070460       31.773460
  O           24.362860       -3.364420       31.738860
  C           25.792780       -6.954920       31.651520
  C           23.003610       -3.097330       31.751500
  C           22.367710       -1.882870       31.807520
  C           20.945730       -1.862590       31.814280
  O           14.608840       -3.245860       31.955830
  C           13.144230       -6.817840       31.750630
  C           15.970400       -3.007250       31.885420
  C           16.642490       -1.810350       31.942380
  C           18.060930       -1.825460       31.873710
  O           20.739950        3.102900       31.945990
  C           18.410440        6.177140       31.842720
  C           20.259150        1.805200       31.941170
  C           20.962010        0.628980       31.908650
  C           20.235380       -0.591430       31.873910
  O           23.183580       -5.360650       31.659950
  C           27.018930       -4.867320       31.696220
  C           22.290420       -4.299720       31.696290
  C           20.916630       -4.325820       31.699240
  C           20.214860       -3.089800       31.755520
  O           39.424250       -9.045450       31.713890
  C           40.833090       -5.445050       31.834490
  C           38.069020       -9.320150       31.765490
  C           37.433970      -10.539080       31.758870
  C           36.014400      -10.564460       31.800360
  O           33.477290      -15.570450       31.819700
  C           35.864420      -18.607700       31.908380
  C           33.915210      -14.257670       31.818560
  C           33.179360      -13.098500       31.831080
  C           33.868510      -11.856680       31.831820
  O           30.824920       -7.139840       31.759800
  C           26.993890       -7.661070       31.672260
  C           31.730820       -8.186610       31.797210
  C           33.102140       -8.133590       31.798220
  C           33.827180       -9.356200       31.825260
  C           40.831650       -6.852160       31.762080
  C           28.228980       -6.982940       31.714030
  C           34.658070      -17.880980       31.868560
  C           13.146920       -5.410750       31.827470
  C           25.783780       -5.545390       31.670520
  C           19.615920        5.449980       31.881540
  H           32.505800      -18.036850       31.807790
  H           37.104930      -13.087430       31.815220
  H           42.078200       -8.614170       31.675140
  H           35.464170       -7.146960       31.888300
  H           29.163380       -5.033270       31.729150
  H           31.131880      -11.528810       31.861330
  H           21.771670        5.607370       31.934080
  H           17.036370        0.726380       31.945190
  H           11.897880       -3.649390       31.913730
  H           18.511460       -5.245190       31.605610
  H           24.847460       -7.493800       31.637130
  H           22.955340       -0.971970       31.834490
  H           14.092440       -7.350990       31.721450
  H           16.085880       -0.887630       32.053140
  H           17.465130        5.637640       31.833760
  H           22.045120        0.658620       31.885360
  H           27.032040       -3.778900       31.686650
  H           20.399440       -5.278310       31.685380
  H           39.884220       -4.913050       31.864740
  H           38.023470      -11.447450       31.711080
  H           36.808760      -18.066760       31.918890
  H           32.097240      -13.152620       31.858990
  H           26.981400       -8.748730       31.672260
  H           33.597530       -7.170490       31.749830
  B           13.403350       -6.600580       35.193030
  B           23.358480       -6.415490       35.063060
  B           18.205990        2.142780       35.240750
  B           38.430860       -9.577980       35.127180
  B           28.457840       -9.388680       35.073170
  B           33.265010      -18.108580       35.183260
  O           34.443340      -17.336540       35.191830
  C           32.017830      -20.353870       35.147660
  C           34.013200      -16.023500       35.158370
  C           34.760830      -14.871130       35.148590
  C           34.080980      -13.624200       35.155220
  O           37.176690       -8.948160       35.202870
  C           40.995480       -9.499350       35.071900
  C           36.254660       -9.979590       35.193700
  C           34.884950       -9.911340       35.214720
  C           34.146520      -11.123560       35.183330
  O           28.543640      -10.791320       35.095050
  C           27.125210       -7.197380       35.079260
  C           29.901240      -11.067440       35.125440
  C           30.528740      -12.287300       35.150070
  C           31.950460      -12.318510       35.168540
  O           17.064950        1.319750       35.243960
  C           19.404400        4.393490       35.269060
  C           17.555030        0.026240       35.267520
  C           16.859770       -1.160160       35.278630
  C           17.591790       -2.376080       35.243830
  O           14.681740       -7.174430       35.074570
  C           10.853470       -6.710420       35.243230
  C           15.562320       -6.107440       35.112590
  C           16.933910       -6.116820       35.054430
  C           17.622560       -4.875950       35.128380
  O           23.233090       -5.013850       35.076050
  C           24.702130       -8.588210       35.033820
  C           21.865730       -4.775830       35.083940
  C           21.195870       -3.576320       35.114260
  C           19.773600       -3.593920       35.135340
  O           13.487430       -5.198640       35.295500
  C           12.076710       -8.798780       35.110250
  C           14.840160       -4.914600       35.239210
  C           15.469090       -3.693710       35.290610
  C           16.886430       -3.655470       35.224150
  O           19.384040        1.371810       35.254000
  C           16.986330        4.411470       35.147320
  C           18.954760        0.056250       35.254540
  C           19.699710       -1.096270       35.206020
  C           19.021040       -2.344120       35.190890
  O           22.097740       -7.037550       35.054360
  C           25.922240       -6.496050       35.083140
  C           21.184220       -5.997250       35.065740
  C           19.813850       -6.060890       35.076780
  C           19.079720       -4.844330       35.106160
  O           38.294290      -10.977120       35.080330
  C           39.774020       -7.411520       35.202270
  C           36.930430      -11.204710       35.133200
  C           36.255820      -12.400880       35.128320
  C           34.835820      -12.376100       35.156830
  O           32.124980      -17.287270       35.140560
  C           34.437530      -20.374120       35.263570
  C           32.613360      -15.992600       35.145650
  C           31.918420      -14.810700       35.164320
  C           32.653330      -13.595150       35.170480
  O           29.736220       -8.801300       35.083010
  C           25.904590       -9.290010       35.035090
  C           30.622210       -9.868060       35.124970
  C           31.995270       -9.851640       35.147790
  C           32.688060      -11.094100       35.173890
  C           39.763980       -8.817110       35.119010
  C           27.136430       -8.606630       35.055840
  C           33.234510      -19.643760       35.203270
  C           12.086800       -7.392060       35.194240
  C           24.689790       -7.179400       35.059720
  C           18.190300        3.680580       35.212440
  H           31.080810      -19.800790       35.106430
  H           35.842390      -14.935920       35.145850
  H           40.995840      -10.586070       35.021840
  H           34.398990       -8.942510       35.236670
  H           28.068770       -6.655100       35.085350
  H           29.934770      -13.193900       35.162650
  H           20.341700        3.842300       35.318050
  H           15.776510       -1.145080       35.296700
  H           10.851480       -5.624090       35.300920
  H           17.454040       -7.063380       34.957720
  H           23.759890       -9.132940       35.029200
  H           21.757320       -2.649000       35.109440
  H           13.021350       -9.339180       35.081800
  H           14.874710       -2.793340       35.388460
  H           16.040110        3.874650       35.110710
  H           20.780190       -1.026640       35.151340
  H           25.930040       -5.407840       35.091840
  H           19.325230       -7.028730       35.092040
  H           38.827540       -6.874950       35.236670
  H           36.814540      -13.328960       35.093780
  H           35.382650      -19.835440       35.295760
  H           30.835500      -14.829800       35.196650
  H           25.896360      -10.378700       35.037230
  H           32.522000       -8.904530       35.114730
  B           12.249480       -8.648970       38.520250
  B           22.231870       -8.774250       38.375220
  B           17.366050       -0.092090       38.605050
  B           37.287210      -11.649460       38.458010
  B           27.331480      -11.760450       38.448980
  B           32.422900      -20.354860       38.539530
  O           33.569920      -19.541660       38.552310
  C           31.215410      -22.598730       38.528620
  C           33.087840      -18.245590       38.520990
  C           33.794010      -17.066870       38.508270
  C           33.071790      -15.845090       38.503590
  O           36.010660      -11.063650       38.535110
  C           39.840970      -11.535020       38.410630
  C           35.125550      -12.127050       38.523000
  C           33.753860      -12.107250       38.549770
  C           33.058070      -13.344770       38.519580
  O           27.447760      -13.163330       38.486120
  C           25.992150       -9.582400       38.411230
  C           28.813000      -13.410830       38.504530
  C           29.473790      -14.615140       38.522390
  C           30.896630      -14.609060       38.523600
  O           16.192510       -0.870710       38.608800
  C           18.606220        2.150760       38.603240
  C           16.631460       -2.181830       38.631620
  C           15.891540       -3.338860       38.629940
  C           16.580330       -4.581110       38.593670
  O           13.505920       -9.265650       38.383320
  C            9.682710       -8.744570       38.561950
  C           14.423550       -8.231360       38.436190
  C           15.793900       -8.291040       38.385600
  C           16.528540       -7.078650       38.466040
  O           22.135670       -7.372610       38.431440
  C           23.565580      -10.963120       38.344100
  C           20.776420       -7.105530       38.444090
  C           20.140520       -5.891060       38.500110
  C           18.718540       -5.870780       38.506870
  O           12.381650       -7.254060       38.648420
  C           10.917040      -10.826030       38.443220
  C           13.743210       -7.015440       38.578010
  C           14.415300       -5.818540       38.634960
  C           15.833730       -5.833650       38.566300
  O           18.512760       -0.905290       38.638580
  C           16.183250        2.168950       38.535310
  C           18.031960       -2.203000       38.633760
  C           18.734820       -3.379210       38.601230
  C           18.008180       -4.599620       38.566500
  O           20.956390       -9.368850       38.352540
  C           24.791740       -8.875510       38.388810
  C           20.063230       -8.307920       38.388880
  C           18.689440       -8.334010       38.391820
  C           17.987670       -7.097990       38.448110
  O           37.197060      -13.053640       38.406480
  C           38.605900       -9.453240       38.527080
  C           35.841830      -13.328340       38.458080
  C           35.206780      -14.547270       38.451450
  C           33.787210      -14.572650       38.492950
  O           31.250100      -19.578640       38.512290
  C           33.637230      -22.615900       38.600970
  C           31.688020      -18.265860       38.511150
  C           30.952170      -17.106690       38.523670
  C           31.641320      -15.864880       38.524400
  O           28.597730      -11.148040       38.452390
  C           24.766700      -11.669260       38.364850
  C           29.503630      -12.194800       38.489800
  C           30.874950      -12.141780       38.490810
  C           31.599990      -13.364400       38.517840
  C           38.604460      -10.860350       38.454670
  C           26.001790      -10.991140       38.406610
  C           32.430870      -21.889170       38.561140
  C           10.919730       -9.418950       38.520050
  C           23.556590       -9.553580       38.363110
  C           17.388720        1.441780       38.574130
  H           30.278610      -22.045040       38.500380
  H           34.877730      -17.095620       38.507800
  H           39.851010      -12.622360       38.367730
  H           33.236970      -11.155150       38.580890
  H           26.936190       -9.041460       38.421740
  H           28.904690      -15.537000       38.553920
  H           19.544480        1.599180       38.626660
  H           14.809180       -3.281820       38.637770
  H            9.670690       -7.657580       38.606320
  H           16.284260       -9.253380       38.298190
  H           22.620270      -11.501990       38.329710
  H           20.728140       -4.980160       38.527080
  H           11.865250      -11.359190       38.414040
  H           13.858680       -4.895830       38.745730
  H           15.237940        1.629440       38.526340
  H           19.817920       -3.349570       38.577940
  H           24.804850       -7.787090       38.379240
  H           18.172250       -9.286510       38.377970
  H           37.657030       -8.921250       38.557330
  H           35.796280      -15.455650       38.403670
  H           34.581570      -22.074960       38.611470
  H           29.870050      -17.160810       38.551570
  H           24.754210      -12.756930       38.364850
  H           31.370340      -11.178690       38.442420
  B           11.176150      -10.608770       41.885620
  B           21.131280      -10.423680       41.755650
  B           15.978800       -1.865410       41.933340
  B           36.203670      -13.586170       41.819760
  B           26.230650      -13.396870       41.765760
  B           31.037820      -22.116770       41.875850
  O           32.216150      -21.344740       41.884420
  C           29.790630      -24.362070       41.840240
  C           31.786010      -20.031690       41.850950
  C           32.533630      -18.879320       41.841180
  C           31.853790      -17.632390       41.847810
  O           34.949500      -12.956360       41.895460
  C           38.768290      -13.507550       41.764480
  C           34.027460      -13.987780       41.886290
  C           32.657750      -13.919540       41.907300
  C           31.919330      -15.131750       41.875920
  O           26.316440      -14.799510       41.787640
  C           24.898020      -11.205570       41.771850
  C           27.674050      -15.075630       41.818020
  C           28.301550      -16.295490       41.842650
  C           29.723270      -16.326700       41.861120
  O           14.837750       -2.688440       41.936550
  C           17.177210        0.385300       41.961650
  C           15.327840       -3.981960       41.960110
  C           14.632580       -5.168350       41.971220
  C           15.364600       -6.384280       41.936420
  O           12.454540      -11.182630       41.767160
  C            8.626280      -10.718610       41.935810
  C           13.335130      -10.115640       41.805170
  C           14.706720      -10.125010       41.747020
  C           15.395360       -8.884150       41.820970
  O           21.005900       -9.022050       41.768630
  C           22.474940      -12.596400       41.726400
  C           19.638540       -8.784030       41.776530
  C           18.968680       -7.584510       41.806850
  C           17.546410       -7.602110       41.827930
  O           11.260240       -9.206840       41.988080
  C            9.849510      -12.806970       41.802830
  C           12.612970       -8.922790       41.931800
  C           13.241900       -7.701900       41.983200
  C           14.659230       -7.663670       41.916740
  O           17.156850       -2.636390       41.946590
  C           14.759140        0.403280       41.839910
  C           16.727560       -3.951950       41.947120
  C           17.472510       -5.104460       41.898600
  C           16.793850       -6.352310       41.883480
  O           19.870540      -11.045750       41.746950
  C           23.695050      -10.504240       41.775730
  C           18.957020      -10.005440       41.758330
  C           17.586660      -10.069080       41.769370
  C           16.852520       -8.852530       41.798750
  O           36.067100      -14.985310       41.772920
  C           37.546830      -11.419720       41.894860
  C           34.703240      -15.212900       41.825790
  C           34.028630      -16.409070       41.820900
  C           32.608630      -16.384300       41.849410
  O           29.897780      -21.295460       41.833150
  C           32.210330      -24.382310       41.956160
  C           30.386170      -20.000790       41.838240
  C           29.691230      -18.818890       41.856910
  C           30.426140      -17.603340       41.863070
  O           27.509030      -12.809490       41.775590
  C           23.677400      -13.298210       41.727670
  C           28.395020      -13.876250       41.817560
  C           29.768080      -13.859840       41.840380
  C           30.460870      -15.102290       41.866480
  C           37.536790      -12.825300       41.811600
  C           24.909230      -12.614820       41.748420
  C           31.007320      -23.651960       41.895860
  C            9.859610      -11.400260       41.886820
  C           22.462600      -11.187590       41.752300
  C           15.963110       -0.327610       41.905030
  H           28.853620      -23.808980       41.799020
  H           33.615200      -18.944120       41.838440
  H           38.768650      -14.594260       41.714420
  H           32.171800      -12.950700       41.929260
  H           25.841570      -10.663300       41.777940
  H           27.707580      -17.202090       41.855240
  H           18.114510       -0.165900       42.010640
  H           13.549320       -5.153280       41.989290
  H            8.624290       -9.632280       41.993500
  H           15.226850      -11.071580       41.650310
  H           21.532700      -13.141130       41.721790
  H           19.530130       -6.657190       41.802030
  H           10.794150      -13.347370       41.774390
  H           12.647520       -6.801530       42.081040
  H           13.812920       -0.133540       41.803300
  H           18.552990       -5.034830       41.843920
  H           23.702850       -9.416030       41.784430
  H           17.098040      -11.036920       41.784630
  H           36.600350      -10.883150       41.929260
  H           34.587350      -17.337160       41.786370
  H           33.155460      -23.843630       41.988350
  H           28.608310      -18.837990       41.889230
  H           23.669170      -14.386890       41.729820
  H           30.294810      -12.912720       41.807320
  B           10.022280      -12.657160       45.212840
  B           20.004680      -12.782450       45.067810
  B           15.138860       -4.100280       45.297630
  B           35.060010      -15.657650       45.150600
  B           25.104290      -15.768650       45.141560
  B           30.195710      -24.363050       45.232110
  O           31.342730      -23.549860       45.244900
  C           28.988220      -26.606920       45.221200
  C           30.860640      -22.253790       45.213580
  C           31.566820      -21.075060       45.200860
  C           30.844600      -19.853280       45.196170
  O           33.783470      -15.071840       45.227700
  C           37.613780      -15.543210       45.103210
  C           32.898360      -16.135250       45.215580
  C           31.526660      -16.115440       45.242350
  C           30.830870      -17.352970       45.212170
  O           25.220570      -17.171530       45.178710
  C           23.764960      -13.590590       45.103820
  C           26.585810      -17.419020       45.197110
  C           27.246600      -18.623330       45.214980
  C           28.669440      -18.617250       45.216190
  O           13.965320       -4.878900       45.301380
  C           16.379030       -1.857430       45.295830
  C           14.404270       -6.190030       45.324200
  C           13.664350       -7.347050       45.322530
  C           14.353140       -8.589300       45.286260
  O           11.278730      -13.273840       45.075910
  C            7.455520      -12.752760       45.254530
  C           12.196350      -12.239550       45.128780
  C           13.566710      -12.299240       45.078180
  C           14.301350      -11.086840       45.158630
  O           19.908480      -11.380810       45.124030
  C           21.338390      -14.971310       45.036690
  C           18.549220      -11.113720       45.136680
  C           17.913330       -9.899250       45.192690
  C           16.491350       -9.878980       45.199450
  O           10.154460      -11.262250       45.341000
  C            8.689850      -14.834220       45.135810
  C           11.516020      -11.023630       45.270600
  C           12.188110       -9.826730       45.327550
  C           13.606540       -9.841850       45.258880
  O           16.285570       -4.913480       45.331160
  C           13.956050       -1.839240       45.227900
  C           15.804770       -6.211190       45.326350
  C           16.507630       -7.387410       45.293820
  C           15.780990       -8.607820       45.259080
  O           18.729200      -13.377040       45.045120
  C           22.564550      -12.883710       45.081400
  C           17.836040      -12.316110       45.081460
  C           16.462240      -12.342200       45.084410
  C           15.760480      -11.106180       45.140690
  O           34.969870      -17.061830       45.099070
  C           36.378700      -13.461430       45.219670
  C           33.614640      -17.336530       45.150670
  C           32.979590      -18.555470       45.144040
  C           31.560010      -18.580840       45.185530
  O           29.022910      -23.586840       45.204880
  C           31.410030      -26.624090       45.293550
  C           29.460830      -22.274050       45.203740
  C           28.724970      -21.114890       45.216250
  C           29.414130      -19.873070       45.216990
  O           26.370530      -15.156230       45.144980
  C           22.539510      -15.677460       45.057440
  C           27.276440      -16.203000       45.182390
  C           28.647760      -16.149970       45.183390
  C           29.372800      -17.372590       45.210430
  C           36.377260      -14.868540       45.147250
  C           23.774600      -14.999330       45.099200
  C           30.203680      -25.897370       45.253730
  C            8.692530      -13.427140       45.212640
  C           21.329400      -13.561770       45.055700
  C           15.161530       -2.566410       45.266710
  H           28.051420      -26.053240       45.192960
  H           32.650540      -21.103820       45.200390
  H           37.623810      -16.630560       45.060320
  H           31.009780      -15.163340       45.273470
  H           24.709000      -13.049650       45.114320
  H           26.677500      -19.545190       45.246500
  H           17.317280       -2.409010       45.319250
  H           12.581990       -7.290010       45.330360
  H            7.443490      -11.665770       45.298910
  H           14.057070      -13.261570       44.990780
  H           20.393080      -15.510190       45.022300
  H           18.500950       -8.988360       45.219670
  H            9.638060      -15.367380       45.106630
  H           11.631490       -8.904020       45.438310
  H           13.010750       -2.378750       45.218930
  H           17.590730       -7.357760       45.270530
  H           22.577650      -11.795280       45.071830
  H           15.945060      -13.294700       45.070550
  H           35.429840      -12.929440       45.249920
  H           33.569080      -19.463840       45.096250
  H           32.354380      -26.083150       45.304060
  H           27.642860      -21.169010       45.244160
  H           22.527020      -16.765120       45.057440
  H           29.143150      -15.186880       45.135000
  B            9.518240       39.598730        1.730100
  B           19.473370       39.783820        1.600130
  B           14.320890       48.342090        1.777820
  B           34.545760       36.621330        1.664250
  B           24.572740       36.810620        1.610240
  B           29.379910       28.090730        1.720330
  O           30.558240       28.862760        1.728900
  C           28.132720       25.845430        1.684720
  C           30.128100       30.175810        1.695430
  C           30.875730       31.328180        1.685660
  C           30.195880       32.575100        1.692290
  O           33.291590       37.251140        1.739940
  C           37.110380       36.699950        1.608960
  C           32.369550       36.219720        1.730770
  C           30.999840       36.287960        1.751780
  C           30.261420       35.075750        1.720400
  O           24.658530       35.407990        1.632120
  C           23.240110       39.001920        1.616330
  C           26.016140       35.131870        1.662510
  C           26.643640       33.912000        1.687130
  C           28.065360       33.880800        1.705610
  O           13.179840       47.519050        1.781030
  C           15.519300       50.592800        1.806130
  C           13.669930       46.225540        1.804590
  C           12.974670       45.039150        1.815700
  C           13.706690       43.823220        1.780900
  O           10.796630       39.024870        1.611640
  C            6.968370       39.488880        1.780290
  C           11.677220       40.091860        1.649660
  C           13.048810       40.082480        1.591500
  C           13.737450       41.323350        1.665450
  O           19.347990       41.185450        1.613110
  C           20.817030       37.611090        1.570880
  C           17.980630       41.423470        1.621010
  C           17.310770       42.622990        1.651330
  C           15.888500       42.605390        1.672410
  O            9.602330       41.000660        1.832560
  C            8.191600       37.400520        1.647310
  C           10.955060       41.284700        1.776280
  C           11.583990       42.505600        1.827680
  C           13.001320       42.543830        1.761220
  O           15.498940       47.571110        1.791070
  C           13.101230       50.610780        1.684390
  C           15.069650       46.255550        1.791610
  C           15.814600       45.103040        1.743080
  C           15.135940       43.855190        1.727960
  O           18.212630       39.161750        1.591430
  C           22.037140       39.703260        1.620210
  C           17.299110       40.202050        1.602810
  C           15.928750       40.138420        1.613850
  C           15.194610       41.354970        1.643230
  O           34.409190       35.222190        1.617400
  C           35.888920       38.787780        1.739340
  C           33.045330       34.994600        1.670270
  C           32.370720       33.798420        1.665380
  C           30.950720       33.823200        1.693890
  O           28.239870       28.912030        1.677630
  C           30.552420       25.825190        1.800640
  C           28.728260       30.206700        1.682720
  C           28.033320       31.388600        1.701390
  C           28.768230       32.604160        1.707550
  O           25.851120       37.398000        1.620070
  C           22.019490       36.909290        1.572160
  C           26.737110       36.331250        1.662040
  C           28.110170       36.347660        1.684860
  C           28.802960       35.105200        1.710960
  C           35.878880       37.382190        1.656080
  C           23.251320       37.592680        1.592900
  C           29.349410       26.555540        1.740340
  C            8.201700       38.807240        1.731310
  C           20.804690       39.019900        1.596780
  C           14.305200       49.879890        1.749510
  H           27.195710       26.398520        1.643500
  H           31.957290       31.263380        1.682920
  H           37.110740       35.613230        1.558900
  H           30.513890       37.256800        1.773740
  H           24.183660       39.544200        1.622420
  H           26.049670       33.005410        1.699720
  H           16.456600       50.041600        1.855120
  H           11.891410       45.054220        1.833770
  H            6.966380       40.575220        1.837990
  H           13.568940       39.135920        1.494790
  H           19.874790       37.066370        1.566270
  H           17.872220       43.550310        1.646510
  H            9.136240       36.860120        1.618870
  H           10.989610       43.405960        1.925520
  H           12.155010       50.073960        1.647780
  H           16.895080       45.172670        1.688410
  H           22.044940       40.791470        1.628910
  H           15.440130       39.170570        1.629110
  H           34.942440       39.324350        1.773740
  H           32.929440       32.870340        1.630850
  H           31.497550       26.363860        1.832830
  H           26.950400       31.369500        1.733710
  H           22.011260       35.820600        1.574300
  H           28.636900       37.294770        1.651800
  B            8.364370       37.550340        5.057320
  B           18.346770       37.425050        4.912290
  B           13.480950       46.107220        5.142120
  B           33.402100       34.549850        4.995080
  B           23.446380       34.438850        4.986040
  B           28.537800       25.844450        5.076590
  O           29.684820       26.657640        5.089380
  C           27.330310       23.600580        5.065690
  C           29.202730       27.953710        5.058060
  C           29.908910       29.132430        5.045340
  C           29.186690       30.354220        5.040660
  O           32.125560       35.135660        5.072180
  C           35.955870       34.664290        4.947700
  C           31.240450       34.072250        5.060060
  C           29.868750       34.092060        5.086830
  C           29.172960       32.854530        5.056650
  O           23.562660       33.035970        5.023190
  C           22.107050       36.616910        4.948300
  C           24.927900       32.788480        5.041590
  C           25.588690       31.584170        5.059460
  C           27.011530       31.590250        5.060670
  O           12.307410       45.328590        5.145860
  C           14.721120       48.350070        5.140310
  C           12.746360       44.017470        5.168680
  C           12.006440       42.860440        5.167010
  C           12.695230       41.618200        5.130740
  O            9.620820       36.933660        4.920390
  C            5.797610       37.454740        5.099010
  C           10.538440       37.967940        4.973260
  C           11.908800       37.908260        4.922670
  C           12.643440       39.120650        5.003110
  O           18.250570       38.826690        4.968510
  C           19.680480       35.236190        4.881170
  C           16.891310       39.093780        4.981160
  C           16.255420       40.308240        5.037180
  C           14.833440       40.328520        5.043930
  O            8.496550       38.945250        5.185480
  C            7.031940       35.373270        4.980290
  C            9.858110       39.183860        5.115080
  C           10.530200       40.380770        5.172030
  C           11.948630       40.365650        5.103360
  O           14.627660       45.294020        5.175640
  C           12.298140       48.368260        5.072380
  C           14.146860       43.996310        5.170830
  C           14.849720       42.820090        5.138300
  C           14.123080       41.599680        5.103570
  O           17.071290       36.830460        4.889600
  C           20.906640       37.323790        4.925880
  C           16.178130       37.891390        4.925940
  C           14.804330       37.865300        4.928890
  C           14.102570       39.101310        4.985170
  O           33.311960       33.145660        4.943550
  C           34.720790       36.746070        5.064150
  C           31.956730       32.870960        4.995150
  C           31.321680       31.652030        4.988520
  C           29.902100       31.626660        5.030010
  O           27.365000       26.620660        5.049360
  C           29.752120       23.583410        5.138030
  C           27.802920       27.933440        5.048220
  C           27.067060       29.092610        5.060730
  C           27.756220       30.334430        5.061470
  O           24.712620       35.051270        4.989460
  C           20.881600       34.530040        4.901920
  C           25.618530       34.004500        5.026870
  C           26.989850       34.057520        5.027870
  C           27.714890       32.834910        5.054910
  C           34.719350       35.338950        4.991730
  C           22.116690       35.208170        4.943680
  C           28.545770       24.310130        5.098210
  C            7.034620       36.780360        5.057120
  C           19.671490       36.645720        4.900180
  C           13.503620       47.641090        5.111200
  H           26.393510       24.154260        5.037440
  H           30.992630       29.103680        5.044870
  H           35.965900       33.576940        4.904800
  H           29.351870       35.044150        5.117950
  H           23.051090       37.157850        4.958810
  H           25.019590       30.662300        5.090980
  H           15.659370       47.798490        5.163730
  H           10.924080       42.917490        5.174840
  H            5.785580       38.541730        5.143390
  H           12.399160       36.945930        4.835260
  H           18.735170       34.697310        4.866780
  H           16.843040       41.219140        5.064150
  H            7.980150       34.840120        4.951110
  H            9.973580       41.303480        5.282790
  H           11.352840       47.828750        5.063410
  H           15.932820       42.849730        5.115010
  H           20.919740       38.412220        4.916310
  H           14.287150       36.912800        4.915040
  H           33.771930       37.278060        5.094400
  H           31.911170       30.743660        4.940740
  H           30.696470       24.124350        5.148540
  H           25.984950       29.038490        5.088640
  H           20.869110       33.442380        4.901920
  H           27.485240       35.020620        4.979490
  B            7.291050       35.590540        8.422690
  B           17.246180       35.775620        8.292720
  B           12.093700       44.333890        8.470410
  B           32.318570       32.613130        8.356830
  B           22.345550       32.802430        8.302820
  B           27.152720       24.082530        8.412920
  O           28.331050       24.854570        8.421480
  C           25.905530       21.837240        8.377310
  C           27.900910       26.167610        8.388020
  C           28.648530       27.319990        8.378250
  C           27.968680       28.566910        8.384870
  O           31.064400       33.242950        8.432530
  C           34.883190       32.691760        8.301550
  C           30.142360       32.211520        8.423360
  C           28.772650       32.279770        8.444370
  C           28.034230       31.067550        8.412980
  O           22.431340       31.399790        8.324710
  C           21.012920       34.993730        8.308910
  C           23.788950       31.123670        8.355090
  C           24.416450       29.903810        8.379720
  C           25.838170       29.872610        8.398190
  O           10.952650       43.510860        8.473620
  C           13.292110       46.584610        8.498710
  C           11.442740       42.217350        8.497180
  C           10.747480       41.030950        8.508290
  C           11.479500       39.815030        8.473480
  O            8.569440       35.016680        8.304230
  C            4.741180       35.480690        8.472880
  C            9.450030       36.083670        8.342240
  C           10.821610       36.074290        8.284080
  C           11.510260       37.315160        8.358040
  O           17.120800       37.177260        8.305700
  C           18.589830       33.602900        8.263470
  C           15.753440       37.415280        8.313600
  C           15.083580       38.614790        8.343920
  C           13.661310       38.597200        8.365000
  O            7.375140       36.992470        8.525150
  C            5.964410       33.392330        8.339900
  C            8.727870       37.276510        8.468870
  C            9.356800       38.497400        8.520270
  C           10.774130       38.535640        8.453810
  O           13.271750       43.562920        8.483660
  C           10.874040       46.602580        8.376980
  C           12.842460       42.247360        8.484190
  C           13.587410       41.094840        8.435670
  C           12.908750       39.846990        8.420550
  O           15.985440       35.153560        8.284020
  C           19.809950       35.695060        8.312790
  C           15.071920       36.193860        8.295390
  C           13.701560       36.130220        8.306440
  C           12.967420       37.346780        8.335820
  O           32.182000       31.213990        8.309980
  C           33.661720       34.779590        8.431920
  C           30.818130       30.986400        8.362860
  C           30.143530       29.790230        8.357970
  C           28.723520       29.815010        8.386480
  O           26.012680       24.903840        8.370220
  C           28.325230       21.816990        8.493230
  C           26.501070       26.198510        8.375300
  C           25.806130       27.380410        8.393980
  C           26.541040       28.595960        8.400130
  O           23.623930       33.389810        8.312660
  C           19.792300       32.901100        8.264740
  C           24.509920       32.323050        8.354620
  C           25.882980       32.339470        8.377450
  C           26.575770       31.097010        8.403550
  C           33.651680       33.374000        8.348670
  C           21.024130       33.584480        8.285490
  C           27.122220       22.547350        8.432930
  C            5.974510       34.799050        8.423890
  C           18.577500       35.011710        8.289370
  C           12.078010       45.871690        8.442100
  H           24.968520       22.390330        8.336090
  H           29.730100       27.255190        8.375500
  H           34.883550       31.605040        8.251490
  H           28.286700       33.248600        8.466320
  H           21.956470       35.536010        8.315000
  H           23.822480       28.997210        8.392300
  H           14.229410       46.033410        8.547700
  H            9.664210       41.046030        8.526360
  H            4.739190       36.567020        8.530570
  H           11.341750       35.127730        8.187380
  H           17.647600       33.058170        8.258850
  H           15.645030       39.542110        8.339100
  H            6.909050       32.851930        8.311460
  H            8.762420       39.397770        8.618110
  H            9.927820       46.065760        8.340370
  H           14.667890       41.164470        8.380990
  H           19.817740       36.783270        8.321500
  H           13.212940       35.162380        8.321700
  H           32.715250       35.316160        8.466320
  H           30.702250       28.862150        8.323440
  H           29.270360       22.355670        8.525420
  H           24.723200       27.361310        8.426300
  H           19.784070       31.812410        8.266880
  H           26.409700       33.286580        8.344380
  B            6.137180       33.542140       11.749910
  B           16.119580       33.416860       11.604880
  B           11.253760       42.099020       11.834700
  B           31.174910       30.541650       11.687670
  B           21.219190       30.430660       11.678630
  B           26.310610       21.836250       11.769180
  O           27.457630       22.649450       11.781960
  C           25.103120       19.592390       11.758270
  C           26.975540       23.945520       11.750640
  C           27.681710       25.124240       11.737930
  C           26.959500       26.346030       11.733240
  O           29.898370       31.127460       11.764760
  C           33.728680       30.656090       11.640280
  C           29.013260       30.064060       11.752650
  C           27.641560       30.083860       11.779420
  C           26.945770       28.846340       11.749240
  O           21.335460       29.027780       11.715770
  C           19.879850       32.608710       11.640880
  C           22.700710       28.780280       11.734180
  C           23.361490       27.575980       11.752050
  C           24.784340       27.582060       11.753250
  O           10.080220       41.320400       11.838450
  C           12.493930       44.341880       11.832890
  C           10.519160       40.009280       11.861270
  C            9.779240       38.852250       11.859600
  C           10.468040       37.610000       11.823320
  O            7.393620       32.925460       11.612980
  C            3.570420       33.446550       11.791600
  C            8.311250       33.959750       11.665850
  C            9.681600       33.900070       11.615250
  C           10.416250       35.112460       11.695700
  O           16.023370       34.818500       11.661100
  C           17.453290       31.227990       11.573760
  C           14.664120       35.085580       11.673740
  C           14.028220       36.300050       11.729760
  C           12.606240       36.320330       11.736520
  O            6.269350       34.937060       11.878070
  C            4.804750       31.365080       11.672870
  C            7.630920       35.175670       11.807660
  C            8.303000       36.372570       11.864620
  C            9.721440       36.357460       11.795950
  O           12.400460       41.285820       11.868230
  C           10.070950       44.360060       11.764960
  C           11.919670       39.988120       11.863410
  C           12.622520       38.811900       11.830890
  C           11.895890       37.591490       11.796150
  O           14.844100       32.822260       11.582190
  C           18.679450       33.315600       11.618460
  C           13.950940       33.883190       11.618530
  C           12.577140       33.857100       11.621480
  C           11.875370       35.093120       11.677760
  O           31.084760       29.137470       11.636130
  C           32.493600       32.737870       11.756730
  C           29.729540       28.862770       11.687730
  C           29.094480       27.643840       11.681110
  C           27.674910       27.618460       11.722600
  O           25.137810       22.612470       11.741940
  C           27.524930       19.575220       11.830620
  C           25.575730       23.925250       11.740800
  C           24.839870       25.084420       11.753320
  C           25.529030       26.326240       11.754060
  O           22.485430       31.043070       11.682040
  C           18.654400       30.521850       11.594500
  C           23.391340       29.996310       11.719460
  C           24.762660       30.049330       11.720460
  C           25.487700       28.826720       11.747500
  C           32.492160       31.330760       11.684320
  C           19.889500       31.199970       11.636270
  C           26.318580       20.301940       11.790800
  C            4.807430       32.772160       11.749710
  C           17.444290       32.637530       11.592760
  C           11.276430       43.632890       11.803780
  H           24.166310       20.146070       11.730030
  H           28.765440       25.095490       11.737460
  H           33.738710       29.568750       11.597380
  H           27.124680       31.035960       11.810540
  H           20.823900       33.149650       11.651390
  H           22.792390       26.654110       11.783570
  H           13.432180       43.790290       11.856320
  H            8.696880       38.909290       11.867430
  H            3.558390       34.533530       11.835970
  H           10.171970       32.937730       11.527850
  H           16.507980       30.689120       11.559370
  H           14.615850       37.210950       11.756730
  H            5.752960       30.831920       11.643700
  H            7.746390       37.295280       11.975380
  H            9.125650       43.820560       11.756000
  H           13.705630       38.841540       11.807600
  H           18.692550       34.404020       11.608890
  H           12.059950       32.904600       11.607620
  H           31.544730       33.269870       11.786980
  H           29.683980       26.735460       11.633320
  H           28.469280       20.116160       11.841130
  H           23.757760       25.030300       11.781230
  H           18.641910       29.434190       11.594500
  H           25.258050       31.012430       11.672070
  B            5.063860       31.582340       15.115270
  B           15.018990       31.767430       14.985300
  B            9.866510       40.325700       15.162990
  B           30.091380       28.604940       15.049420
  B           20.118350       28.794240       14.995410
  B           24.925530       20.074340       15.105500
  O           26.103860       20.846370       15.114070
  C           23.678340       17.829040       15.069900
  C           25.673710       22.159420       15.080610
  C           26.421340       23.311790       15.070830
  C           25.741490       24.558720       15.077460
  O           28.837210       29.234760       15.125110
  C           32.656000       28.683560       14.994140
  C           27.915170       28.203330       15.115940
  C           26.545460       28.271570       15.136960
  C           25.807030       27.059360       15.105570
  O           20.204150       27.391600       15.017290
  C           18.785730       30.985540       15.001500
  C           21.561760       27.115480       15.047680
  C           22.189260       25.895620       15.072310
  C           23.610980       25.864410       15.090780
  O            8.725460       39.502670       15.166200
  C           11.064920       42.576410       15.191300
  C            9.215550       38.209150       15.189760
  C            8.520290       37.022760       15.200870
  C            9.252300       35.806840       15.166070
  O            6.342250       31.008480       14.996810
  C            2.513980       31.472500       15.165470
  C            7.222840       32.075470       15.034830
  C            8.594420       32.066100       14.976670
  C            9.283070       33.306970       15.050620
  O           14.893610       33.169070       14.998290
  C           16.362640       29.594710       14.956060
  C           13.526250       33.407090       15.006180
  C           12.856390       34.606600       15.036500
  C           11.434110       34.589000       15.057580
  O            5.147940       32.984270       15.217740
  C            3.737220       29.384140       15.032490
  C            6.500670       33.268320       15.161450
  C            7.129610       34.489210       15.212850
  C            8.546940       34.527440       15.146390
  O           11.044560       39.554730       15.176240
  C            8.646850       42.594390       15.069560
  C           10.615270       38.239160       15.176780
  C           11.360220       37.086650       15.128260
  C           10.681560       35.838800       15.113130
  O           13.758250       31.145360       14.976600
  C           17.582760       31.686870       15.005380
  C           12.844730       32.185670       14.987980
  C           11.474360       32.122030       14.999020
  C           10.740230       33.338580       15.028400
  O           29.954800       27.205800       15.002570
  C           31.434530       30.771400       15.124510
  C           28.590940       26.978210       15.055440
  C           27.916340       25.782040       15.050560
  C           26.496330       25.806820       15.079070
  O           23.785490       20.895650       15.062800
  C           26.098040       17.808800       15.185810
  C           24.273880       22.190320       15.067890
  C           23.578940       23.372220       15.086560
  C           24.313840       24.587770       15.092720
  O           21.396730       29.381620       15.005250
  C           17.565110       28.892900       14.957330
  C           22.282720       28.314860       15.047210
  C           23.655780       28.331270       15.070030
  C           24.348570       27.088820       15.096130
  C           31.424490       29.365810       15.041250
  C           18.796940       29.576290       14.978080
  C           24.895030       18.539160       15.125510
  C            3.747320       30.790850       15.116480
  C           16.350310       31.003520       14.981960
  C            9.850820       41.863500       15.134680
  H           22.741330       18.382130       15.028670
  H           27.502910       23.246990       15.068090
  H           32.656360       27.596850       14.944080
  H           26.059510       29.240410       15.158910
  H           19.729280       31.527810       15.007590
  H           21.595290       24.989020       15.084890
  H           12.002220       42.025210       15.240290
  H            7.437020       37.037830       15.218940
  H            2.511990       32.558830       15.223160
  H            9.114550       31.119540       14.879960
  H           15.420400       29.049980       14.951440
  H           13.417840       35.533920       15.031680
  H            4.681860       28.843740       15.004040
  H            6.535230       35.389580       15.310700
  H            7.700630       42.057570       15.032950
  H           12.440700       37.156280       15.073580
  H           17.590550       32.775080       15.014080
  H           10.985740       31.154190       15.014280
  H           30.488060       31.307970       15.158910
  H           28.475050       24.853960       15.016020
  H           27.043170       18.347480       15.218000
  H           22.496010       23.353120       15.118890
  H           17.556870       27.804220       14.959470
  H           24.182510       29.278390       15.036970
  B            3.909990       29.533950       18.442490
  B           13.892390       29.408660       18.297460
  B            9.026560       38.090830       18.527290
  B           28.947720       26.533460       18.380250
  B           18.992000       26.422470       18.371220
  B           24.083410       17.828060       18.461770
  O           25.230430       18.641250       18.474550
  C           22.875930       15.584190       18.450860
  C           24.748350       19.937320       18.443230
  C           25.454520       21.116050       18.430510
  C           24.732300       22.337830       18.425830
  O           27.671180       27.119270       18.457350
  C           31.501490       26.647900       18.332870
  C           26.786060       26.055860       18.445240
  C           25.414370       26.075670       18.472010
  C           24.718580       24.838150       18.441820
  O           19.108270       25.019580       18.408360
  C           17.652660       28.600520       18.333470
  C           20.473510       24.772090       18.426770
  C           21.134300       23.567780       18.444630
  C           22.557140       23.573860       18.445840
  O            7.853020       37.312210       18.531040
  C           10.266740       40.333680       18.525480
  C            8.291970       36.001080       18.553860
  C            7.552050       34.844060       18.552180
  C            8.240840       33.601810       18.515910
  O            5.166430       28.917270       18.305560
  C            1.343230       29.438350       18.484190
  C            6.084060       29.951560       18.358430
  C            7.454410       29.891870       18.307840
  C            8.189060       31.104270       18.388280
  O           13.796180       30.810300       18.353680
  C           15.226100       27.219800       18.266340
  C           12.436930       31.077390       18.366330
  C           11.801030       32.291860       18.422350
  C           10.379050       32.312140       18.429110
  O            4.042160       30.928860       18.570660
  C            2.577550       27.356890       18.365460
  C            5.403730       31.167480       18.500250
  C            6.075810       32.364380       18.557200
  C            7.494250       32.349260       18.488540
  O           10.173270       37.277630       18.560820
  C            7.843760       40.351870       18.457550
  C            9.692470       35.979920       18.556000
  C           10.395330       34.803700       18.523470
  C            9.668700       33.583290       18.488740
  O           12.616900       28.814070       18.274780
  C           16.452250       29.307400       18.311050
  C           11.723740       29.875000       18.311120
  C           10.349950       29.848910       18.314060
  C            9.648180       31.084930       18.370350
  O           28.857570       25.129280       18.328720
  C           30.266410       28.729680       18.449320
  C           27.502350       24.854580       18.380320
  C           26.867290       23.635640       18.373690
  C           25.447720       23.610270       18.415190
  O           22.910610       18.604270       18.434530
  C           25.297740       15.567020       18.523210
  C           23.348530       19.917060       18.433390
  C           22.612680       21.076220       18.445910
  C           23.301830       22.318040       18.446640
  O           20.258240       27.034880       18.374630
  C           16.427210       26.513660       18.287090
  C           21.164140       25.988120       18.412040
  C           22.535460       26.041140       18.413050
  C           23.260500       24.818520       18.440080
  C           30.264970       27.322570       18.376910
  C           17.662300       27.191780       18.328850
  C           24.091390       16.293750       18.483380
  C            2.580240       28.763970       18.442290
  C           15.217100       28.629340       18.285350
  C            9.049240       39.624700       18.496370
  H           21.939120       16.137880       18.422620
  H           26.538250       21.087290       18.430040
  H           31.511520       25.560550       18.289970
  H           24.897490       27.027770       18.503130
  H           18.596710       29.141460       18.343980
  H           20.565200       22.645920       18.476160
  H           11.204990       39.782100       18.548910
  H            6.469690       34.901100       18.560010
  H            1.331200       30.525340       18.528560
  H            7.944780       28.929540       18.220430
  H           14.280780       26.680920       18.251960
  H           12.388660       33.202760       18.449320
  H            3.525760       26.823730       18.336280
  H            5.519200       33.287090       18.667970
  H            6.898450       39.812360       18.448580
  H           11.478440       34.833350       18.500180
  H           16.465360       30.395830       18.301480
  H            9.832760       28.896410       18.300210
  H           29.317540       29.261670       18.479570
  H           27.456790       22.727270       18.325910
  H           26.242080       16.107960       18.533710
  H           21.530570       21.022100       18.473810
  H           16.414720       25.425990       18.287090
  H           23.030850       27.004230       18.364660
  B            2.836670       27.574150       21.807860
  B           12.791800       27.759240       21.677890
  B            7.639310       36.317510       21.855580
  B           27.864180       24.596750       21.742010
  B           17.891160       24.786040       21.688000
  B           22.698340       16.066150       21.798090
  O           23.876660       16.838180       21.806660
  C           21.451150       13.820850       21.762480
  C           23.446520       18.151230       21.773190
  C           24.194150       19.303600       21.763420
  C           23.514300       20.550520       21.770050
  O           26.610010       25.226560       21.817700
  C           30.428800       24.675370       21.686720
  C           25.687980       24.195140       21.808530
  C           24.318270       24.263380       21.829540
  C           23.579840       23.051170       21.798160
  O           17.976960       23.383410       21.709880
  C           16.558530       26.977340       21.694090
  C           19.334570       23.107290       21.740270
  C           19.962060       21.887420       21.764890
  C           21.383790       21.856220       21.783370
  O            6.498270       35.494470       21.858790
  C            8.837720       38.568220       21.883890
  C            6.988350       34.200960       21.882350
  C            6.293090       33.014570       21.893460
  C            7.025110       31.798640       21.858660
  O            4.115060       27.000290       21.689400
  C            0.286790       27.464300       21.858050
  C            4.995650       28.067280       21.727420
  C            6.367230       28.057900       21.669260
  C            7.055880       29.298770       21.743210
  O           12.666410       29.160870       21.690870
  C           14.135450       25.586520       21.648640
  C           11.299050       29.398890       21.698770
  C           10.629190       30.598410       21.729090
  C            9.206920       30.580810       21.750170
  O            2.920750       28.976080       21.910320
  C            1.510030       25.375940       21.725070
  C            4.273480       29.260130       21.854040
  C            4.902410       30.481020       21.905440
  C            6.319750       30.519250       21.838980
  O            8.817370       35.546530       21.868830
  C            6.419650       38.586200       21.762150
  C            8.388080       34.230970       21.869370
  C            9.133030       33.078460       21.820840
  C            8.454360       31.830610       21.805720
  O           11.531060       27.137170       21.669190
  C           15.355560       27.678680       21.697970
  C           10.617540       28.177480       21.680570
  C            9.247170       28.113840       21.691610
  C            8.513040       29.330390       21.720990
  O           27.727610       23.197610       21.695160
  C           29.207340       26.763200       21.817100
  C           26.363750       22.970020       21.748030
  C           25.689140       21.773840       21.743140
  C           24.269140       21.798620       21.771650
  O           21.558300       16.887460       21.755390
  C           23.870850       13.800610       21.878400
  C           22.046680       18.182120       21.760480
  C           21.351740       19.364020       21.779150
  C           22.086650       20.579580       21.785310
  O           19.169540       25.373420       21.697830
  C           15.337910       24.884710       21.649920
  C           20.055530       24.306670       21.739800
  C           21.428590       24.323080       21.762620
  C           22.121380       23.080620       21.788720
  C           29.197300       25.357610       21.733840
  C           16.569750       25.568100       21.670660
  C           22.667830       14.530960       21.818100
  C            1.520120       26.782660       21.809060
  C           14.123110       26.995330       21.674540
  C            7.623630       37.855310       21.827270
  H           20.514140       14.373940       21.721260
  H           25.275710       19.238800       21.760680
  H           30.429160       23.588650       21.636660
  H           23.832310       25.232220       21.851500
  H           17.502090       27.519620       21.700180
  H           19.368100       20.980830       21.777480
  H            9.775020       38.017020       21.932880
  H            5.209830       33.029640       21.911530
  H            0.284800       28.550640       21.915740
  H            6.887360       27.111340       21.572550
  H           13.193210       25.041790       21.644030
  H           11.190650       31.525730       21.724270
  H            2.454670       24.835540       21.696630
  H            4.308040       31.381380       22.003280
  H            5.473430       38.049380       21.725540
  H           10.213510       33.148090       21.766170
  H           15.363360       28.766890       21.706670
  H            8.758550       27.145990       21.706870
  H           28.260870       27.299770       21.851500
  H           26.247860       20.845760       21.708610
  H           24.815970       14.339280       21.910590
  H           20.268820       19.344930       21.811470
  H           15.329680       23.796030       21.652060
  H           21.955320       25.270190       21.729560
  B            1.682800       25.525760       25.135080
  B           11.665200       25.400470       24.990050
  B            6.799370       34.082640       25.219870
  B           26.720530       22.525270       25.072840
  B           16.764800       22.414270       25.063800
  B           21.856220       13.819870       25.154350
  O           23.003240       14.633060       25.167140
  C           20.648730       11.576000       25.143450
  C           22.521160       15.929130       25.135820
  C           23.227330       17.107860       25.123100
  C           22.505110       18.329640       25.118420
  O           25.443980       23.111080       25.149940
  C           29.274300       22.639710       25.025460
  C           24.558870       22.047670       25.137820
  C           23.187180       22.067480       25.164590
  C           22.491390       20.829950       25.134410
  O           16.881080       21.011390       25.100950
  C           15.425470       24.592330       25.026060
  C           18.246320       20.763900       25.119350
  C           18.907110       19.559590       25.137220
  C           20.329950       19.565670       25.138430
  O            5.625830       33.304010       25.223620
  C            8.039540       36.325490       25.218070
  C            6.064780       31.992890       25.246440
  C            5.324860       30.835860       25.244770
  C            6.013650       29.593620       25.208500
  O            2.939240       24.909080       24.998150
  C           -0.883970       25.430160       25.176770
  C            3.856870       25.943360       25.051020
  C            5.227220       25.883680       25.000420
  C            5.961860       27.096070       25.080870
  O           11.568990       26.802110       25.046270
  C           12.998900       23.211610       24.958930
  C           10.209740       27.069200       25.058920
  C            9.573840       28.283660       25.114930
  C            8.151860       28.303940       25.121690
  O            1.814970       26.920670       25.263240
  C            0.350360       23.348700       25.058050
  C            3.176530       27.159280       25.192840
  C            3.848620       28.356190       25.249790
  C            5.267050       28.341070       25.181120
  O            7.946080       33.269440       25.253400
  C            5.616570       36.343680       25.150140
  C            7.465280       31.971730       25.248590
  C            8.168140       30.795510       25.216060
  C            7.441500       29.575100       25.181330
  O           10.389710       24.805880       24.967360
  C           14.225060       25.299210       25.003640
  C            9.496550       25.866810       25.003700
  C            8.122760       25.840720       25.006650
  C            7.420990       27.076730       25.062930
  O           26.630380       21.121080       25.021310
  C           28.039220       24.721490       25.141910
  C           25.275150       20.846380       25.072910
  C           24.640100       19.627450       25.066280
  C           23.220530       19.602080       25.107770
  O           20.683420       14.596080       25.127120
  C           23.070550       11.558830       25.215790
  C           21.121340       15.908860       25.125980
  C           20.385490       17.068030       25.138490
  C           21.074640       18.309850       25.139230
  O           18.031050       23.026690       25.067220
  C           14.200020       22.505460       24.979680
  C           18.936950       21.979920       25.104630
  C           20.308270       22.032950       25.105630
  C           21.033310       20.810330       25.132670
  C           28.037780       23.314380       25.069490
  C           15.435110       23.183590       25.021440
  C           21.864200       12.285550       25.175970
  C            0.353050       24.755780       25.134880
  C           12.989910       24.621150       24.977940
  C            6.822040       35.616510       25.188950
  H           19.711930       12.129680       25.115200
  H           24.311060       17.079100       25.122630
  H           29.284330       21.552360       24.982560
  H           22.670300       23.019570       25.195710
  H           16.369510       25.133270       25.036560
  H           18.338010       18.637730       25.168740
  H            8.977800       35.773910       25.241490
  H            4.242500       30.892910       25.252600
  H           -0.895990       26.517150       25.221150
  H            5.717580       24.921350       24.913020
  H           12.053590       22.672730       24.944540
  H           10.161460       29.194560       25.141910
  H            1.298570       22.815540       25.028870
  H            3.292010       29.278900       25.360550
  H            4.671260       35.804170       25.141170
  H            9.251240       30.825150       25.192770
  H           14.238170       26.387640       24.994070
  H            7.605570       24.888220       24.992800
  H           27.090350       25.253480       25.172160
  H           25.229600       18.719080       25.018490
  H           24.014890       12.099770       25.226300
  H           19.303370       17.013910       25.166400
  H           14.187530       21.417800       24.979680
  H           20.803660       22.996040       25.057240
  B            0.609480       23.565960       28.500450
  B           10.564600       23.751040       28.370480
  B            5.412120       32.309310       28.548160
  B           25.636990       20.588560       28.434590
  B           15.663970       20.777850       28.380580
  B           20.471140       12.057950       28.490680
  O           21.649470       12.829990       28.499240
  C           19.223960        9.812660       28.455070
  C           21.219330       14.143030       28.465780
  C           21.966960       15.295410       28.456010
  C           21.287110       16.542330       28.462630
  O           24.382820       21.218370       28.510280
  C           28.201610       20.667180       28.379310
  C           23.460780       20.186940       28.501120
  C           22.091080       20.255190       28.522130
  C           21.352650       19.042970       28.490740
  O           15.749770       19.375210       28.402470
  C           14.331340       22.969150       28.386670
  C           17.107370       19.099100       28.432850
  C           17.734870       17.879230       28.457480
  C           19.156590       17.848030       28.475950
  O            4.271070       31.486280       28.551380
  C            6.610530       34.560030       28.576470
  C            4.761160       30.192770       28.574940
  C            4.065900       29.006370       28.586040
  C            4.797920       27.790450       28.551240
  O            1.887860       22.992100       28.381990
  C           -1.940400       23.456110       28.550640
  C            2.768450       24.059090       28.420000
  C            4.140040       24.049710       28.361840
  C            4.828690       25.290580       28.435800
  O           10.439220       25.152680       28.383460
  C           11.908260       21.578320       28.341230
  C            9.071860       25.390700       28.391360
  C            8.402000       26.590210       28.421670
  C            6.979730       26.572620       28.442760
  O            0.693560       24.967890       28.602910
  C           -0.717170       21.367750       28.417660
  C            2.046290       25.251930       28.546630
  C            2.675220       26.472830       28.598020
  C            4.092550       26.511060       28.531570
  O            6.590170       31.538340       28.561420
  C            4.192460       34.578000       28.454740
  C            6.160880       30.222780       28.561950
  C            6.905840       29.070260       28.513430
  C            6.227170       27.822420       28.498310
  O            9.303870       23.128980       28.361780
  C           13.128370       23.670480       28.390550
  C            8.390340       24.169280       28.373150
  C            7.019980       24.105640       28.384200
  C            6.285850       25.322200       28.413580
  O           25.500420       19.189410       28.387740
  C           26.980150       22.755010       28.509680
  C           24.136560       18.961820       28.440610
  C           23.461950       17.765650       28.435730
  C           22.041950       17.790430       28.464240
  O           19.331100       12.879260       28.447980
  C           21.643650        9.792410       28.570990
  C           19.819490       14.173930       28.453060
  C           19.124550       15.355830       28.471740
  C           19.859460       16.571380       28.477890
  O           16.942350       21.365230       28.390420
  C           13.110720       20.876520       28.342500
  C           17.828340       20.298470       28.432380
  C           19.201400       20.314890       28.455200
  C           19.894190       19.072430       28.481310
  C           26.970110       21.349420       28.426430
  C           14.342560       21.559900       28.363250
  C           20.440640       10.522770       28.510690
  C           -0.707070       22.774470       28.501650
  C           11.895920       22.987130       28.367130
  C            5.396430       33.847110       28.519860
  H           18.286940       10.365750       28.413840
  H           23.048520       15.230610       28.453260
  H           28.201970       19.580460       28.329250
  H           21.605120       21.224020       28.544080
  H           15.274900       23.511430       28.392760
  H           17.140900       16.972630       28.470060
  H            7.547830       34.008830       28.625460
  H            2.982640       29.021450       28.604110
  H           -1.942390       24.542450       28.608330
  H            4.660170       23.103150       28.265140
  H           10.966020       21.033590       28.336610
  H            8.963450       27.517530       28.416860
  H            0.227480       20.827350       28.389220
  H            2.080840       27.373190       28.695870
  H            3.246240       34.041190       28.418130
  H            7.986320       29.139900       28.458750
  H           13.136170       24.758690       28.399250
  H            6.531360       23.137800       28.399460
  H           26.033670       23.291580       28.544080
  H           24.020670       16.837570       28.401200
  H           22.588780       10.331090       28.603180
  H           18.041630       15.336730       28.504060
  H           13.102490       19.787830       28.344640
  H           19.728130       21.262000       28.422140
  B           -0.544400       21.517570       31.827670
  B            9.438000       21.392280       31.682640
  B            4.572180       30.074440       31.912460
  B           24.493330       18.517070       31.765430
  B           14.537610       18.406080       31.756390
  B           19.629030        9.811670       31.846940
  O           20.776050       10.624870       31.859720
  C           18.421540        7.567810       31.836030
  C           20.293960       11.920940       31.828400
  C           21.000140       13.099660       31.815690
  C           20.277920       14.321450       31.811000
  O           23.216790       19.102880       31.842520
  C           27.047100       18.631510       31.718040
  C           22.331680       18.039480       31.830410
  C           20.959990       18.059280       31.857180
  C           20.264200       16.821760       31.827000
  O           14.653890       17.003200       31.793530
  C           13.198280       20.584130       31.718640
  C           16.019130       16.755700       31.811940
  C           16.679920       15.551400       31.829810
  C           18.102760       15.557480       31.831010
  O            3.398640       29.295820       31.916210
  C            5.812350       32.317300       31.910650
  C            3.837590       27.984700       31.939030
  C            3.097670       26.827670       31.937360
  C            3.786460       25.585420       31.901080
  O            0.712050       20.900880       31.690740
  C           -3.111160       21.421970       31.869360
  C            1.629670       21.935170       31.743610
  C            3.000030       21.875490       31.693010
  C            3.734670       23.087880       31.773460
  O            9.341800       22.793920       31.738860
  C           10.771710       19.203410       31.651520
  C            7.982540       23.061000       31.751500
  C            7.346650       24.275470       31.807520
  C            5.924670       24.295750       31.814280
  O           -0.412220       22.912480       31.955830
  C           -1.876830       19.340500       31.750630
  C            0.949340       23.151090       31.885420
  C            1.621430       24.347990       31.942380
  C            3.039860       24.332880       31.873710
  O            5.718890       29.261240       31.945990
  C            3.389370       32.335480       31.842720
  C            5.238090       27.963540       31.941170
  C            5.940950       26.787320       31.908650
  C            5.214310       25.566910       31.873910
  O            8.162520       20.797680       31.659950
  C           11.997870       21.291020       31.696220
  C            7.269360       21.858610       31.696290
  C            5.895570       21.832520       31.699240
  C            5.193800       23.068540       31.755520
  O           24.403190       17.112890       31.713890
  C           25.812020       20.713290       31.834490
  C           23.047960       16.838190       31.765490
  C           22.412910       15.619260       31.758870
  C           20.993340       15.593880       31.800360
  O           18.456230       10.587890       31.819700
  C           20.843350        7.550640       31.908380
  C           18.894150       11.900670       31.818560
  C           18.158300       13.059840       31.831080
  C           18.847450       14.301660       31.831820
  O           15.803850       19.018500       31.759800
  C           11.972830       18.497270       31.672260
  C           16.709760       17.971730       31.797210
  C           18.081080       18.024750       31.798220
  C           18.806120       16.802140       31.825260
  C           25.810580       19.306180       31.762080
  C           13.207920       19.175390       31.714030
  C           19.637000        8.277360       31.868560
  C           -1.874140       20.747580       31.827470
  C           10.762720       20.612950       31.670520
  C            4.594850       31.608310       31.881540
  H           17.484740        8.121490       31.807790
  H           22.083860       13.070910       31.815220
  H           27.057130       17.544170       31.675140
  H           20.443100       19.011380       31.888300
  H           14.142320       21.125070       31.729150
  H           16.110820       14.629530       31.861330
  H            6.750600       31.765710       31.934080
  H            2.015310       26.884720       31.945190
  H           -3.123180       22.508950       31.913730
  H            3.490390       20.913150       31.605610
  H            9.826400       18.664540       31.637130
  H            7.934270       25.186370       31.834490
  H           -0.928620       18.807340       31.721450
  H            1.064810       25.270700       32.053140
  H            2.444070       31.795980       31.833760
  H            7.024050       26.816960       31.885360
  H           12.010980       22.379440       31.686650
  H            5.378380       20.880020       31.685380
  H           24.863160       21.245290       31.864740
  H           23.002410       14.710880       31.711080
  H           21.787700        8.091580       31.918890
  H           17.076180       13.005720       31.858990
  H           11.960340       17.409610       31.672260
  H           18.576470       18.987850       31.749830
  B           -1.617720       19.557760       35.193030
  B            8.337410       19.742850       35.063060
  B            3.184930       28.301120       35.240750
  B           23.409800       16.580360       35.127180
  B           13.436780       16.769660       35.073170
  B           18.243950        8.049760       35.183260
  O           19.422280        8.821790       35.191830
  C           16.996760        5.804460       35.147660
  C           18.992140       10.134840       35.158370
  C           19.739760       11.287210       35.148590
  C           19.059920       12.534140       35.155220
  O           22.155630       17.210180       35.202870
  C           25.974420       16.658990       35.071900
  C           21.233590       16.178750       35.193700
  C           19.863880       16.246990       35.214720
  C           19.125460       15.034780       35.183330
  O           13.522570       15.367020       35.095050
  C           12.104150       18.960960       35.079260
  C           14.880180       15.090900       35.125440
  C           15.507680       13.871040       35.150070
  C           16.929400       13.839830       35.168540
  O            2.043880       27.478090       35.243960
  C            4.383340       30.551830       35.269060
  C            2.533970       26.184570       35.267520
  C            1.838710       24.998180       35.278630
  C            2.570730       23.782260       35.243830
  O           -0.339330       18.983900       35.074570
  C           -4.167590       19.447920       35.243230
  C            0.541260       20.050890       35.112590
  C            1.912840       20.041520       35.054430
  C            2.601490       21.282390       35.128380
  O            8.212030       21.144490       35.076050
  C            9.681070       17.570130       35.033820
  C            6.844670       21.382510       35.083940
  C            6.174810       22.582020       35.114260
  C            4.752540       22.564420       35.135340
  O           -1.533630       20.959690       35.295500
  C           -2.944360       17.359560       35.110250
  C           -0.180900       21.243740       35.239210
  C            0.448030       22.464630       35.290610
  C            1.865360       22.502860       35.224150
  O            4.362980       27.530150       35.254000
  C            1.965270       30.569810       35.147320
  C            3.933690       26.214580       35.254540
  C            4.678640       25.062070       35.206020
  C            3.999980       23.814220       35.190890
  O            7.076670       19.120780       35.054360
  C           10.901180       19.662290       35.083140
  C            6.163150       20.161090       35.065740
  C            4.792790       20.097450       35.076780
  C            4.058650       21.314000       35.106160
  O           23.273230       15.181220       35.080330
  C           24.752950       18.746820       35.202270
  C           21.909370       14.953630       35.133200
  C           21.234760       13.757460       35.128320
  C           19.814760       13.782240       35.156830
  O           17.103910        8.871070       35.140560
  C           19.416460        5.784220       35.263570
  C           17.592300       10.165740       35.145650
  C           16.897360       11.347640       35.164320
  C           17.632270       12.563190       35.170480
  O           14.715160       17.357040       35.083010
  C           10.883530       16.868320       35.035090
  C           15.601150       16.290280       35.124970
  C           16.974210       16.306690       35.147790
  C           17.667000       15.064240       35.173890
  C           24.742910       17.341230       35.119010
  C           12.115360       17.551710       35.055840
  C           18.213450        6.514580       35.203270
  C           -2.934260       18.766270       35.194240
  C            9.668730       18.978940       35.059720
  C            3.169240       29.838920       35.212440
  H           16.059750        6.357550       35.106430
  H           20.821330       11.222410       35.145850
  H           25.974780       15.572270       35.021840
  H           19.377930       17.215830       35.236670
  H           13.047700       19.503230       35.085350
  H           14.913710       12.964440       35.162650
  H            5.320640       30.000630       35.318050
  H            0.755450       25.013250       35.296700
  H           -4.169580       20.534250       35.300920
  H            2.432980       19.094960       34.957720
  H            8.738830       17.025400       35.029200
  H            6.736260       23.509340       35.109440
  H           -1.999720       16.819160       35.081800
  H           -0.146350       23.365000       35.388460
  H            1.019050       30.032990       35.110710
  H            5.759120       25.131700       35.151340
  H           10.908970       20.750500       35.091840
  H            4.304170       19.129610       35.092040
  H           23.806480       19.283390       35.236670
  H           21.793480       12.829380       35.093780
  H           20.361590        6.322900       35.295760
  H           15.814440       11.328540       35.196650
  H           10.875300       15.779640       35.037230
  H           17.500930       17.253810       35.114730
  B           -2.771590       17.509370       38.520250
  B            7.210810       17.384090       38.375220
  B            2.344990       26.066250       38.605050
  B           22.266140       14.508880       38.458010
  B           12.310420       14.397890       38.448980
  B           17.401840        5.803480       38.539530
  O           18.548860        6.616670       38.552310
  C           16.194350        3.559610       38.528620
  C           18.066770        7.912740       38.520990
  C           18.772950        9.091470       38.508270
  C           18.050730       10.313250       38.503590
  O           20.989600       15.094690       38.535110
  C           24.819910       14.623320       38.410630
  C           20.104490       14.031290       38.523000
  C           18.732790       14.051090       38.549770
  C           18.037000       12.813570       38.519580
  O           12.426690       12.995000       38.486120
  C           10.971080       16.575940       38.411230
  C           13.791940       12.747510       38.504530
  C           14.452730       11.543200       38.522390
  C           15.875570       11.549280       38.523600
  O            1.171450       25.287630       38.608800
  C            3.585160       28.309100       38.603240
  C            1.610400       23.976510       38.631620
  C            0.870480       22.819480       38.629940
  C            1.559270       21.577230       38.593670
  O           -1.515150       16.892690       38.383320
  C           -5.338350       17.413770       38.561950
  C           -0.597520       17.926980       38.436190
  C            0.772830       17.867300       38.385600
  C            1.507480       19.079690       38.466040
  O            7.114600       18.785720       38.431440
  C            8.544520       15.195220       38.344100
  C            5.755350       19.052810       38.444090
  C            5.119460       20.267280       38.500110
  C            3.697480       20.287560       38.506870
  O           -2.639420       18.904280       38.648420
  C           -4.104020       15.332310       38.443220
  C           -1.277850       19.142900       38.578010
  C           -0.605770       20.339800       38.634960
  C            0.812670       20.324680       38.566300
  O            3.491700       25.253050       38.638580
  C            1.162180       28.327290       38.535310
  C            3.010900       23.955340       38.633760
  C            3.713750       22.779120       38.601230
  C            2.987120       21.558710       38.566500
  O            5.935330       16.789490       38.352540
  C            9.770680       17.282830       38.388810
  C            5.042170       17.850420       38.388880
  C            3.668370       17.824330       38.391820
  C            2.966610       19.060350       38.448110
  O           22.176000       13.104700       38.406480
  C           23.584830       16.705100       38.527080
  C           20.820770       12.830000       38.458080
  C           20.185710       11.611060       38.451450
  C           18.766140       11.585690       38.492950
  O           16.229040        6.579690       38.512290
  C           18.616160        3.542440       38.600970
  C           16.666960        7.892480       38.511150
  C           15.931100        9.051640       38.523670
  C           16.620260       10.293460       38.524400
  O           13.576660       15.010300       38.452390
  C            9.745630       14.489080       38.364850
  C           14.482570       13.963540       38.489800
  C           15.853890       14.016560       38.490810
  C           16.578930       12.793940       38.517840
  C           23.583390       15.297990       38.454670
  C           10.980730       15.167200       38.406610
  C           17.409810        4.269170       38.561140
  C           -4.101340       16.739390       38.520050
  C            8.535530       16.604760       38.363110
  C            2.367660       27.600120       38.574130
  H           15.257550        4.113300       38.500380
  H           19.856670        9.062710       38.507800
  H           24.829940       13.535970       38.367730
  H           18.215910       15.003190       38.580890
  H           11.915130       17.116880       38.421740
  H           13.883620       10.621340       38.553920
  H            4.523410       27.757520       38.626660
  H           -0.211890       22.876520       38.637770
  H           -5.350380       18.500760       38.606320
  H            1.263200       16.904960       38.298190
  H            7.599210       14.656340       38.329710
  H            5.707080       21.178180       38.527080
  H           -3.155810       14.799150       38.414040
  H           -1.162380       21.262510       38.745730
  H            0.216880       27.787780       38.526340
  H            4.796860       22.808770       38.577940
  H            9.783780       18.371250       38.379240
  H            3.151180       16.871830       38.377970
  H           22.635960       17.237090       38.557330
  H           20.775210       10.702690       38.403670
  H           19.560510        4.083380       38.611470
  H           14.848990        8.997520       38.551570
  H            9.733140       13.401410       38.364850
  H           16.349280       14.979650       38.442420
  B           -3.844910       15.549570       41.885620
  B            6.110220       15.734660       41.755650
  B            0.957740       24.292930       41.933340
  B           21.182610       12.572170       41.819760
  B           11.209580       12.761460       41.765760
  B           16.016760        4.041570       41.875850
  O           17.195090        4.813600       41.884420
  C           14.769570        1.796270       41.840240
  C           16.764940        6.126650       41.850950
  C           17.512570        7.279020       41.841180
  C           16.832720        8.525940       41.847810
  O           19.928440       13.201980       41.895460
  C           23.747230       12.650790       41.764480
  C           19.006400       12.170560       41.886290
  C           17.636690       12.238800       41.907300
  C           16.898260       11.026590       41.875920
  O           11.295380       11.358830       41.787640
  C            9.876960       14.952760       41.771850
  C           12.652990       11.082710       41.818020
  C           13.280490        9.862840       41.842650
  C           14.702210        9.831640       41.861120
  O           -0.183310       23.469890       41.936550
  C            2.156150       26.543640       41.961650
  C            0.306780       22.176380       41.960110
  C           -0.388480       20.989990       41.971220
  C            0.343530       19.774060       41.936420
  O           -2.566520       14.975710       41.767160
  C           -6.394780       15.439720       41.935810
  C           -1.685930       16.042700       41.805170
  C           -0.314350       16.033320       41.747020
  C            0.374300       17.274190       41.820970
  O            5.984840       17.136290       41.768630
  C            7.453870       13.561940       41.726400
  C            4.617480       17.374310       41.776530
  C            3.947620       18.573830       41.806850
  C            2.525340       18.556230       41.827930
  O           -3.760830       16.951500       41.988080
  C           -5.171550       13.351360       41.802830
  C           -2.408100       17.235550       41.931800
  C           -1.779160       18.456440       41.983200
  C           -0.361830       18.494670       41.916740
  O            2.135790       23.521950       41.946590
  C           -0.261920       26.561620       41.839910
  C            1.706500       22.206390       41.947120
  C            2.451450       21.053880       41.898600
  C            1.772790       19.806030       41.883480
  O            4.849480       15.112590       41.746950
  C            8.673990       15.654100       41.775730
  C            3.935960       16.152900       41.758330
  C            2.565600       16.089260       41.769370
  C            1.831460       17.305810       41.798750
  O           21.046030       11.173030       41.772920
  C           22.525760       14.738620       41.894860
  C           19.682170       10.945440       41.825790
  C           19.007570        9.749260       41.820900
  C           17.587560        9.774040       41.849410
  O           14.876720        4.862880       41.833150
  C           17.189270        1.776030       41.956160
  C           15.365110        6.157540       41.838240
  C           14.670170        7.339440       41.856910
  C           15.405070        8.555000       41.863070
  O           12.487970       13.348840       41.775590
  C            8.656340       12.860130       41.727670
  C           13.373950       12.282090       41.817560
  C           14.747020       12.298500       41.840380
  C           15.439810       11.056040       41.866480
  C           22.515720       13.333030       41.811600
  C            9.888170       13.543520       41.748420
  C           15.986260        2.506380       41.895860
  C           -5.161450       14.758080       41.886820
  C            7.441540       14.970750       41.752300
  C            0.942050       25.830730       41.905030
  H           13.832560        2.349360       41.799020
  H           18.594140        7.214220       41.838440
  H           23.747590       11.564070       41.714420
  H           17.150740       13.207640       41.929260
  H           10.820510       15.495040       41.777940
  H           12.686520        8.956250       41.855240
  H            3.093450       25.992440       42.010640
  H           -1.471750       21.005060       41.989290
  H           -6.396770       16.526060       41.993500
  H            0.205790       15.086760       41.650310
  H            6.511630       13.017210       41.721790
  H            4.509070       19.501150       41.802030
  H           -4.226910       12.810970       41.774390
  H           -2.373540       19.356800       42.081040
  H           -1.208140       26.024800       41.803300
  H            3.531930       21.123510       41.843920
  H            8.681780       16.742310       41.784430
  H            2.076970       15.121420       41.784630
  H           21.579290       15.275190       41.929260
  H           19.566280        8.821180       41.786370
  H           18.134400        2.314700       41.988350
  H           13.587240        7.320350       41.889230
  H            8.648110       11.771450       41.729820
  H           15.273740       13.245620       41.807320
  B           -4.998780       13.501180       45.212840
  B            4.983620       13.375890       45.067810
  B            0.117790       22.058060       45.297630
  B           20.038950       10.500690       45.150600
  B           10.083230       10.389690       45.141560
  B           15.174640        1.795290       45.232110
  O           16.321660        2.608480       45.244900
  C           13.967160       -0.448580       45.221200
  C           15.839580        3.904550       45.213580
  C           16.545750        5.083280       45.200860
  C           15.823530        6.305060       45.196170
  O           18.762410       11.086500       45.227700
  C           22.592720       10.615130       45.103210
  C           17.877290       10.023090       45.215580
  C           16.505600       10.042900       45.242350
  C           15.809810        8.805370       45.212170
  O           10.199500        8.986810       45.178710
  C            8.743890       12.567750       45.103820
  C           11.564740        8.739320       45.197110
  C           12.225530        7.535010       45.214980
  C           13.648370        7.541090       45.216190
  O           -1.055740       21.279430       45.301380
  C            1.357970       24.300910       45.295830
  C           -0.616800       19.968310       45.324200
  C           -1.356720       18.811280       45.322530
  C           -0.667930       17.569040       45.286260
  O           -3.742340       12.884500       45.075910
  C           -7.565540       13.405580       45.254530
  C           -2.824710       13.918780       45.128780
  C           -1.454360       13.859100       45.078180
  C           -0.719710       15.071490       45.158630
  O            4.887410       14.777530       45.124030
  C            6.317330       11.187030       45.036690
  C            3.528160       15.044620       45.136680
  C            2.892260       16.259080       45.192690
  C            1.470280       16.279360       45.199450
  O           -4.866610       14.896090       45.341000
  C           -6.331210       11.324120       45.135810
  C           -3.505040       15.134710       45.270600
  C           -2.832960       16.331610       45.327550
  C           -1.414520       16.316490       45.258880
  O            1.264500       21.244860       45.331160
  C           -1.065010       24.319100       45.227900
  C            0.783700       19.947150       45.326350
  C            1.486560       18.770930       45.293820
  C            0.759930       17.550520       45.259080
  O            3.708140       12.781300       45.045120
  C            7.543480       13.274630       45.081400
  C            2.814980       13.842230       45.081460
  C            1.441180       13.816140       45.084410
  C            0.739410       15.052150       45.140690
  O           19.948800        9.096500       45.099070
  C           21.357640       12.696910       45.219670
  C           18.593580        8.821800       45.150670
  C           17.958520        7.602870       45.144040
  C           16.538950        7.577500       45.185530
  O           14.001850        2.571500       45.204880
  C           16.388970       -0.465750       45.293550
  C           14.439760        3.884290       45.203740
  C           13.703910        5.043450       45.216250
  C           14.393060        6.285270       45.216990
  O           11.349470       11.002110       45.144980
  C            7.518440       10.480880       45.057440
  C           12.255370        9.955340       45.182390
  C           13.626700       10.008370       45.183390
  C           14.351730        8.785750       45.210430
  C           21.356200       11.289800       45.147250
  C            8.753530       11.159010       45.099200
  C           15.182620        0.260970       45.253730
  C           -6.328530       12.731200       45.212640
  C            6.308330       12.596570       45.055700
  C            0.140470       23.591930       45.266710
  H           13.030350        0.105100       45.192960
  H           17.629480        5.054520       45.200390
  H           22.602750        9.527780       45.060320
  H           15.988720       10.994990       45.273470
  H            9.687940       13.108690       45.114320
  H           11.656430        6.613150       45.246500
  H            2.296220       23.749330       45.319250
  H           -2.439080       18.868330       45.330360
  H           -7.577570       14.492570       45.298910
  H           -0.963990       12.896770       44.990780
  H            5.372010       10.648150       45.022300
  H            3.479890       17.169980       45.219670
  H           -5.383000       10.790960       45.106630
  H           -3.389570       17.254320       45.438310
  H           -2.010320       23.779590       45.218930
  H            2.569670       18.800570       45.270530
  H            7.556590       14.363060       45.071830
  H            0.923990       12.863640       45.070550
  H           20.408770       13.228900       45.249920
  H           18.548020        6.694500       45.096250
  H           17.333310        0.075190       45.304060
  H           12.621800        4.989330       45.244160
  H            7.505950        9.393220       45.057440
  H           14.122090       10.971460       45.135000
