       12456
  Built with Packmol                                             
  Li          17.958133       35.205926       38.052517
  Cl          17.652371       33.046445       39.791980
  O           19.092650       33.136931       39.528308
  O           16.980341       32.443877       38.635479
  O           17.112532       34.390544       40.025350
  O           17.423641       32.214813       40.978587
  Li          -1.875999       62.454881       28.286665
  Cl          -0.980720       63.381264       30.761108
  O           -0.102034       64.006748       29.766727
  O           -0.593338       61.977936       30.942251
  O           -2.370755       63.448532       30.296599
  O           -0.857173       64.091552       32.038680
  Li          53.899059       34.556105       10.561310
  Cl          53.917784       32.196265        9.073565
  O           52.871784       33.030810        8.472290
  O           53.421064       31.616524       10.326314
  O           55.100559       33.018847        9.350856
  O           54.278034       31.119092        8.145189
  Li          37.269409       64.157169        8.022864
  Cl          36.724234       62.963436       10.484645
  O           36.681032       64.408894       10.731419
  O           38.120769       62.527135       10.377224
  O           36.019677       62.659534        9.234152
  O           36.075517       62.258011       11.595277
  H            3.849200       22.610050        4.960960
  H           -2.763230       24.308980        4.531460
  H           -0.925040       17.832850        4.394960
  H           14.675270        9.759140        0.222910
  H           21.322950        8.025840        0.211960
  H           19.488060       14.509990        0.385590
  H            7.796310       24.176190        4.287440
  H           -6.156740       26.944020        4.623850
  H           -1.664610       13.638390        4.968720
  H           10.722830        8.127610        0.654800
  H           24.675700        5.337240        0.197430
  H           20.129560       18.759790        0.335520
  H            6.890660       26.508910        4.432990
  H           -7.685980       24.962690        4.807140
  H            0.798340       13.246250        5.246300
  H           11.667670        5.808190        0.519200
  H           26.237380        7.293740        0.013140
  H           17.666930       19.124300        0.029670
  H            2.925220       24.946040        4.988140
  H           -4.299440       22.323710        4.581540
  H            1.543800       17.427150        4.587010
  H           15.634150        7.436740        0.202600
  H           22.889540        9.986100        0.138490
  H           17.009690       14.879000        0.202210
  H            5.686910       16.997400        0.729870
  H            1.075430       28.638970        0.571770
  H           -6.807940       18.855010        0.640770
  H           12.810480       15.280050        4.223020
  H           17.407850        3.547510        4.292020
  H           25.173680       13.473630        4.511550
  H           14.105050       18.114000        2.282310
  H           14.448830        3.288910        2.586360
  H           26.965650       10.938180        2.424380
  H            4.352320       14.297160        2.744060
  H            4.055690       28.977790        2.435730
  H           -8.517390       21.307320        2.525530
  H           11.800890       18.297410        3.065340
  H           15.460650        1.165490        3.236780
  H           28.246730       12.848290        3.240670
  H            6.633790       14.116130        1.893330
  H            3.045930       31.074480        1.705260
  H           -9.835020       19.381020        1.824730
  H           10.455420       18.264860        4.602050
  H           -2.392020       32.174680        4.672230
  H           -8.027910       14.064600        4.637890
  H            8.024370       14.001760        0.452400
  H           20.920590        0.112810        0.327450
  H           26.496530       18.205850        0.410980
  H            9.671960       20.475720        0.268510
  H           -3.991640       30.282660        0.253180
  H           -5.591280       13.749680        0.207680
  H            8.949520       11.800340        4.755470
  H           22.497620        2.129530        4.738740
  H           24.134700       18.557200        4.715940
  H           10.640130       15.103160        0.421640
  H           18.673300        1.830860        0.450110
  H           26.343130       15.383240        0.326950
  H            7.935920       17.092850        4.714950
  H           -0.057350       30.626680        4.651920
  H           -7.660160       16.879590        4.570780
  H            7.681280       18.145800        1.312890
  H           -0.914690       29.980790        1.276350
  H           -6.754100       16.438400        1.274360
  H           10.806550       14.177510        3.734280
  H           19.561750        2.398200        3.716760
  H           25.343680       15.699740        3.715370
  H            6.748960       20.322900        2.009510
  H           -2.322000       28.050600        1.900890
  H           -4.419930       16.279580        2.037390
  H           11.748750       12.001260        3.063550
  H           20.927800        4.316860        2.977430
  H           22.973660       15.923620        3.070120
  H            3.915200       22.671410        9.080340
  H           -2.703430       24.324990        9.701790
  H           -0.980560       17.554950        0.248200
  H           14.651070        9.675420        4.839590
  H           21.306430        8.195160        5.279750
  H           19.531650       14.520220        5.185370
  H            7.739080       24.103930        0.052670
  H           -6.104060       26.947450        9.503670
  H           -1.482530       13.505570        9.158690
  H           10.748290        8.062170        5.632490
  H           24.622550        5.460960        5.247390
  H           20.106100       18.779730        5.140560
  H            6.791600       26.418950        0.243220
  H           -7.631850       24.966750        9.683870
  H            0.980060       13.097650        9.396640
  H           11.680610        5.741700        5.486430
  H           26.211030        7.392560        5.053450
  H           17.638430       19.103890        4.828150
  H            2.989110       24.994740        9.179600
  H           -4.235390       22.337280        9.769790
  H            1.497080       17.171610        0.371460
  H           15.607720        7.356410        4.798580
  H           22.901710       10.132470        5.199000
  H           17.052860       14.847890        4.992620
  H            5.619640       17.282940        5.569570
  H            0.973000       28.505650        5.402700
  H           -6.321420       18.834280        5.272880
  H           13.068540       14.984310        9.602430
  H           17.740520        4.055140        9.747490
  H           25.126190       13.522790        9.466630
  H           14.357110       17.628560        7.478020
  H           14.790360        3.649490        7.705820
  H           26.965020       11.052420        7.581670
  H            4.416020       14.442310        7.564240
  H            3.985780       28.897130        7.281100
  H           -8.045520       21.266880        7.235700
  H           12.114970       17.845090        8.416470
  H           15.832020        1.627790        8.584830
  H           28.256890       12.971930        8.362610
  H            6.678940       14.276920        6.693000
  H            2.977620       30.975060        6.501250
  H           -9.392840       19.391710        6.434140
  H           10.647300       18.342630        9.588190
  H           -2.460330       32.271690        9.604020
  H           -7.888590       14.134870        9.612380
  H            8.114750       14.032180        5.402700
  H           21.097330        0.194170        5.361090
  H           26.502670       18.286520        5.356010
  H            9.562020       20.482290        5.261330
  H           -3.853260       30.260640        5.258540
  H           -5.669810       13.839360        5.357110
  H            9.008570       11.852350        9.787410
  H           22.442930        2.088890        9.588890
  H           24.203420       18.572940        9.768200
  H           10.517030       15.522100        5.167250
  H           18.434820        1.455770        5.160180
  H           26.512550       15.420180        5.287410
  H            8.090420       16.910470        9.787210
  H            0.150740       30.842910        9.740320
  H           -8.116600       17.035390        9.806430
  H            7.737430       18.104930        6.423590
  H           -0.775200       29.965030        6.382870
  H           -6.787980       16.753420        6.380880
  H           10.962660       14.145300        8.631520
  H           19.371060        2.493910        8.563420
  H           25.307940       15.769610        8.639990
  H            6.827580       20.293690        7.086460
  H           -2.173830       28.033040        7.024330
  H           -4.398740       16.495620        6.976540
  H           11.848410       11.950420        7.928230
  H           20.716360        4.454010        7.888710
  H           22.949730       15.980890        7.948640
  C            4.497950       23.474400        4.836410
  C           -3.842550       24.434090        4.575960
  C           -0.531330       16.835800        4.577550
  C           14.034580        8.883440        0.296990
  C           22.400520        7.883400        0.177710
  C           19.069860       15.511830        0.320880
  C            6.738380       24.349080        4.464650
  C           -5.757370       25.933710        4.636090
  C           -0.960570       14.463570        4.906400
  C           11.790700        7.969650        0.532450
  C           24.291510        6.352850        0.163280
  C           19.446740       17.915680        0.285340
  C            6.330890       21.850680        4.489640
  C           -3.412720       26.865180        4.436180
  C           -2.872600       16.059640        4.434190
  C           12.164570       10.470240        0.580830
  C           21.930700        5.466520        0.404310
  C           21.383600       16.309160        0.616270
  C            5.867410       23.256330        4.612100
  C           -4.369310       25.735820        4.560830
  C           -1.433520       15.762190        4.657500
  C           12.653030        9.075200        0.454390
  C           22.905940        6.573890        0.229090
  C           19.945460       16.606940        0.393860
  C            6.238750       25.645040        4.536830
  C           -6.608620       24.836360        4.731170
  C            0.404590       14.242620        5.058820
  C           12.312600        6.682100        0.463650
  C           25.160360        7.435690        0.066800
  C           18.079440       18.122030        0.120960
  C            3.990070       24.770610        4.857910
  C           -4.696180       23.335000        4.613000
  C            0.836440       16.608750        4.691050
  C           14.561780        7.595640        0.279760
  C           23.271680        8.968550        0.130920
  C           17.698620       15.719240        0.211270
  C            4.395550       27.271340        4.676520
  C           -7.052770       22.407530        4.704990
  C            2.759480       14.983110        4.968230
  C           14.195860        5.092580        0.410090
  C           25.651710        9.852200        0.124650
  C           15.742630       17.316010        0.076860
  C            4.862100       25.860740        4.704990
  C           -6.084370       23.533910        4.694930
  C            1.310370       15.307440        4.926510
  C           13.699920        6.490830        0.369070
  C           24.658190        8.747040        0.086420
  C           17.198940       17.028120        0.119670
  C            5.855380       16.608560        4.750290
  C            1.405540       29.069580        4.580240
  C           -7.084600       18.933740        4.505370
  C           12.706210       15.633730        0.408790
  C           17.190390        3.359880        0.559620
  C           25.729630       13.335770        0.338800
  C            9.651450       16.703550        2.453550
  C           17.884480        0.125010        2.478140
  C           28.081590       15.484890        2.454340
  C            8.840750       15.599690        2.582680
  C            0.693360       32.225510        2.543150
  C           -9.542760       16.741680        2.547730
  C           13.344830       17.453140        1.874510
  C           15.376850        2.969000        2.118930
  C           26.825550       11.913090        1.965010
  C            5.136670       14.915950        3.172470
  C            3.156020       29.339790        2.926460
  C           -8.327910       20.335870        2.973850
  C           12.027930       17.543970        2.320240
  C           15.966310        1.763200        2.487800
  C           27.548320       13.011880        2.427460
  C            6.440840       14.821310        2.693190
  C            2.566700       30.531370        2.511190
  C           -9.071010       19.226310        2.576600
  C            7.475630       15.645940        3.182230
  C            1.364030       31.003560        3.074900
  C           -8.815690       17.933880        3.082370
  C           11.024880       16.659360        1.870830
  C           17.204460        1.346080        1.957340
  C           27.358370       14.304110        1.895120
  C            9.686360       18.732430        3.990750
  C           -2.410890       31.302690        4.022010
  C           -7.242680       14.500550        4.024000
  C            8.792950       13.546200        1.072560
  C           20.962580        1.001370        0.953780
  C           25.733320       17.754550        1.041000
  C            9.176380       19.972200        4.383110
  C           -3.222330       30.220880        4.374850
  C           -5.917310       14.387500        4.452410
  C            9.306260       12.301090        0.698610
  C           21.753810        2.075600        0.538720
  C           24.392420       17.904560        0.679590
  C            9.322100       14.243710        2.172190
  C           20.160230        1.094140        2.104890
  C           26.101280       16.964550        2.144510
  C            9.161330       18.053180        2.877670
  C           -1.573120       31.241050        2.894400
  C           -7.571860       15.248650        2.879960
  C           10.369210       11.767300        1.417630
  C           21.724070        3.258680        1.268590
  C           23.416260       17.239020        1.412750
  C            8.120850       20.525350        3.667380
  C           -3.178350       29.066180        3.603360
  C           -4.918310       15.045480        3.742650
  C           11.393610       15.744280        0.860790
  C           17.765530        2.151610        0.943730
  C           26.462880       14.421740        0.811210
  C            7.154070       16.499310        4.257770
  C            0.829600       30.262000        4.148450
  C           -7.838750       17.836010        4.096780
  C           13.678190       16.474510        0.942630
  C           16.010650        3.768930        1.172220
  C           25.905850       12.090130        0.933970
  C            4.849660       15.833280        4.181110
  C            2.557920       28.609780        3.950530
  C           -7.320220       20.173320        3.919960
  C            8.105140       18.652210        2.173690
  C           -1.560060       30.054920        2.144420
  C           -6.529310       15.861790        2.166720
  C           10.381310       13.658920        2.882150
  C           20.175060        2.298750        2.826400
  C           25.082910       16.320510        2.864830
  C            7.574920       19.879370        2.560870
  C           -2.349310       28.963390        2.490880
  C           -5.206960       15.775790        2.591740
  C           10.918150       12.431550        2.509900
  C           20.942770        3.385590        2.415120
  C           23.744460       16.441840        2.505720
  C            4.555230       23.518880        9.314500
  C           -3.783830       24.447410        9.689640
  C           -0.554310       16.571800        0.062220
  C           14.018490        8.803520        4.989030
  C           22.382510        8.038510        5.242410
  C           19.100650       15.516560        5.118760
  C            6.772290       24.361540        9.841470
  C           -5.699980       25.942200        9.584710
  C           -0.811500       14.314350        9.434770
  C           11.804310        7.902950        5.430380
  C           24.253580        6.482410        5.216930
  C           19.437150       17.924960        5.087000
  C            6.401310       21.882290        9.385890
  C           -3.343720       26.870040        9.457370
  C           -2.772720       15.920860        9.516510
  C           12.190580       10.415470        5.397230
  C           21.888870        5.626550        5.479460
  C           21.403030       16.352710        5.431280
  C            5.925550       23.287090        9.523480
  C           -4.309000       25.746830        9.585700
  C           -1.327860       15.600550        9.661570
  C           12.655020        9.008410        5.258340
  C           22.872570        6.723540        5.296180
  C           19.959630       16.625920        5.200100
  C            6.157870       25.572300       -0.010250
  C           -6.551230       24.845490        9.679690
  C            0.556190       14.085770        9.558920
  C           12.321120        6.611130        5.352430
  C           25.137200        7.552290        5.112790
  C           18.066310       18.107730        4.917650
  C            4.041610       24.811220        9.377320
  C           -4.636270       23.347080        9.734640
  C            0.819950       16.354430        0.136500
  C           14.544270        7.514660        4.958370
  C           23.268820        9.110070        5.189250
  C           17.726220       15.701040        5.002570
  C            4.414200       27.301420        9.707660
  C           -7.005510       22.424440        9.701690
  C            2.883050       14.839510        9.845850
  C           14.200920        5.010560        5.204480
  C           25.652300        9.968180        5.174110
  C           15.736860       17.271010        4.905200
  C            4.888490       25.888530        9.690240
  C           -6.027160       23.543990        9.724490
  C            1.427230       15.146530        9.857800
  C           13.697440        6.410640        5.149620
  C           24.652320        8.869160        5.138270
  C           17.200990       17.000900        4.913270
  C            5.989780       16.483700        9.798360
  C            1.541850       29.213990        9.636880
  C           -7.291730       19.013600        9.677700
  C           12.642930       15.820510        5.151220
  C           17.080670        3.119610        5.235240
  C           25.839240       13.388070        5.366560
  C            9.761770       16.701460        7.493260
  C           17.928930        0.163350        7.493660
  C           28.119380       15.596780        7.476030
  C            8.951740       15.594170        7.554980
  C           19.296390        0.036070        7.501420
  C           -9.547600       16.833430        7.508190
  C           13.516350       17.157490        6.974450
  C           15.594970        3.175420        7.148180
  C           26.855900       12.013170        7.084170
  C            5.216950       14.987450        8.056570
  C            3.142690       29.320450        7.821510
  C           -8.053580       20.332050        7.790440
  C           12.231860       17.278930        7.500030
  C           16.187720        2.011160        7.635630
  C           27.587530       13.115320        7.523220
  C            6.515800       14.901720        7.562650
  C            2.557980       30.507340        7.383140
  C           -8.825660       19.260180        7.348900
  C            7.576620       15.630270        8.134420
  C            1.430080       31.057490        8.022320
  C           -8.822310       18.029740        8.031970
  C           11.129710       16.645240        6.896800
  C           17.249320        1.383330        6.956430
  C           27.430300       14.386840        6.939010
  C            9.847640       18.775500        8.992820
  C           -2.424160       31.374530        8.991730
  C           -7.137270       14.605510        8.981870
  C            8.886550       13.563620        6.008920
  C           21.051320        1.092280        5.971690
  C           25.737160       17.828060        5.976570
  C            9.340900       20.022290        9.375630
  C           -3.229000       30.291850        9.356720
  C           -5.789920       14.444340        9.317990
  C            9.369110       12.311590        5.616860
  C           21.828580        2.189680        5.592270
  C           24.401030       17.967870        5.589080
  C            9.444010       14.249800        7.102680
  C           20.161620        1.174870        7.056890
  C           26.097160       17.035160        7.081080
  C            9.278800       18.053120        7.928830
  C           -1.523420       31.278800        7.916980
  C           -7.522440       15.421500        7.903440
  C           10.441400       11.753040        6.301030
  C           21.693170        3.389200        6.281020
  C           23.412400       17.293100        6.295950
  C            8.246640       20.550280        8.698530
  C           -3.120220       29.097060        8.654920
  C           -4.819840       15.123130        8.589710
  C           11.363010       15.954960        5.690830
  C           17.653110        1.947670        5.730950
  C           26.585230       14.475780        5.814480
  C            7.282880       16.391360        9.283640
  C            0.972390       30.404320        9.184480
  C           -8.076520       17.951970        9.225500
  C           13.712890       16.408590        5.817570
  C           16.058770        3.728420        5.956260
  C           25.959370       12.172000        6.031820
  C            4.961380       15.788220        9.167750
  C            2.613170       28.669790        8.932690
  C           -7.275570       20.191360        8.935580
  C            8.193950       18.636880        7.251630
  C           -1.460730       30.059870        7.218970
  C           -6.511340       16.099850        7.201150
  C           10.510940       13.638670        7.784170
  C           20.062760        2.403950        7.732100
  C           25.063790       16.387750        7.782380
  C            7.672850       19.872300        7.623680
  C           -2.244490       28.966820        7.578080
  C           -5.165890       15.964450        7.534870
  C           11.017580       12.401470        7.391310
  C           20.812030        3.513280        7.352980
  C           23.729190       16.502450        7.398480
  O            7.640200       21.793720        4.047300
  O           -4.031960       27.990590        3.926630
  O           -3.587450       14.903170        4.182000
  O           10.868570       10.500380        1.057420
  O           22.556360        4.323000        0.864580
  O           22.066290       17.426790        1.055630
  O            5.655240       20.863050        4.722210
  O           -2.228130       26.815470        4.717830
  O           -3.364630       17.174960        4.451910
  O           12.815730       11.468980        0.325860
  O           20.731600        5.550360        0.199320
  O           21.903760       15.218840        0.455190
  O            3.062140       27.348510        4.318100
  O           -6.466330       21.242060        4.249010
  O            3.522370       16.067850        4.577850
  O           15.502990        5.041880        0.855910
  O           25.066280       11.034690        0.530650
  O           15.021640       16.254800        0.591380
  O            5.099420       28.237770        4.908990
  O           -8.220530       22.493020        5.044090
  O            3.226660       13.899960        5.273080
  O           13.537860        4.107700        0.125540
  O           26.928280        9.808930        9.821760
  O           15.334800       18.429040        9.629910
  O            7.752570       21.815830        9.089500
  O           -3.963260       28.025330        9.017810
  O           -3.459400       14.896590        8.893560
  O           10.907860       10.478130        5.909860
  O           22.515700        4.468570        5.904680
  O           22.064930       17.468690        5.907470
  O            5.686160       20.901770        9.496600
  O           -2.150090       26.794500        9.693630
  O           -3.294810       16.958950        9.885780
  O           12.853350       11.399820        5.115080
  O           20.687440        5.724800        5.303640
  O           21.942400       15.275410        5.244110
  O            3.098420       27.395560        9.292200
  O           -6.410380       21.242650        9.302850
  O            3.641710       15.975530        9.623240
  O           15.548650        4.967170        5.511720
  O           25.089350       11.121810        5.683060
  O           15.029880       16.176530        5.369650
  O            5.000050       28.186910        0.067400
  O           -8.282440       22.456100        0.004180
  O            3.261810       13.645930        0.008460
  O           13.513640        4.018880        5.040510
  O           26.820130        9.869840        4.841980
  O           15.219140       18.326310        4.585220
  H            3.941120       22.687440       14.916920
  H           -2.671310       24.386370       14.487420
  H           -0.833120       17.910240       14.350930
  H           14.767190        9.836530       10.178880
  H           21.414870        8.103230       10.167930
  H           19.579970       14.587380       10.341560
  H            7.888220       24.253580       14.243400
  H           -6.064820       27.021410       14.579810
  H           -1.572690       13.715780       14.924690
  H           10.814740        8.205000       10.610770
  H           24.767620        5.414630       10.153390
  H           20.221480       18.837180       10.291480
  H            6.982580       26.586300       14.388960
  H           -7.594060       25.040080       14.763100
  H            0.890250       13.323640       15.202260
  H           11.759580        5.885580       10.475170
  H           26.329300        7.371130        9.969110
  H           17.758850       19.201690        9.985630
  H            3.017130       25.023430       14.944100
  H           -4.207520       22.401100       14.537500
  H            1.635720       17.504550       14.542980
  H           15.726070        7.514130       10.158570
  H           22.981460       10.063490       10.094450
  H           17.101610       14.956390       10.158170
  H            5.778820       17.074790       10.685840
  H            1.167350       28.716360       10.527740
  H           -6.716020       18.932400       10.596730
  H           12.902390       15.357440       14.178990
  H           17.499770        3.624910       14.247980
  H           25.265590       13.551020       14.467510
  H           14.196970       18.191400       12.238270
  H           14.540750        3.366300       12.542330
  H           27.057570       11.015570       12.380340
  H            4.444240       14.374560       12.700030
  H            4.147610       29.055180       12.391690
  H           -8.425470       21.384710       12.481490
  H           11.892810       18.374800       13.021310
  H           15.552560        1.242880       13.192750
  H           28.338650       12.925680       13.196630
  H            6.725710       14.193520       11.849290
  H            3.137850       31.151870       11.661220
  H           -9.743100       19.458410       11.780690
  H           10.547340       18.342260       14.558010
  H           -2.300100       32.252070       14.628200
  H           -7.935990       14.142000       14.593850
  H            8.116290       14.079160       10.408360
  H           21.012510        0.190200       10.283420
  H           26.588450       18.283240       10.366950
  H            9.763880       20.553110       10.224480
  H           -3.899720       30.360050       10.209150
  H           -5.499360       13.827070       10.163650
  H            9.041430       11.877730       14.711430
  H           22.589540        2.206920       14.694710
  H           24.226620       18.634590       14.671910
  H           10.732050       15.180550       10.377600
  H           18.765220        1.908250       10.406070
  H           26.435050       15.460630       10.282920
  H            8.027840       17.170250       14.670910
  H            0.034570       30.704070       14.607890
  H           -7.568240       16.956990       14.526750
  H            7.773200       18.223190       11.268860
  H           -0.822770       30.058180       11.232320
  H           -6.662180       16.515790       11.230330
  H           10.898470       14.254900       13.690250
  H           19.653670        2.475590       13.672730
  H           25.435590       15.777130       13.671330
  H            6.840880       20.400290       11.965480
  H           -2.230090       28.128000       11.856860
  H           -4.328010       16.356970       11.993350
  H           11.840670       12.078660       13.019510
  H           21.019710        4.394250       12.933400
  H           23.065570       16.001010       13.026090
  H            4.007110       22.748800       19.036300
  H           -2.611510       24.402380       19.657750
  H           -0.888640       17.632340       10.204170
  H           14.742990        9.752810       14.795560
  H           21.398350        8.272550       15.235710
  H           19.623570       14.597610       15.141330
  H            7.830990       24.181330       10.008630
  H           -6.012150       27.024850       19.459630
  H           -1.390610       13.582960       19.114660
  H           10.840210        8.139560       15.588450
  H           24.714460        5.538360       15.203360
  H           20.198010       18.857120       15.096530
  H            6.883520       26.496340       10.199190
  H           -7.539930       25.044140       19.639830
  H            1.071980       13.175040       19.352600
  H           11.772530        5.819090       15.442400
  H           26.302950        7.469950       15.009410
  H           17.730350       19.181280       14.784110
  H            3.081030       25.072130       19.135560
  H           -4.143480       22.414670       19.725750
  H            1.589000       17.249000       10.327420
  H           15.699640        7.433800       14.754540
  H           22.993630       10.209860       15.154970
  H           17.144780       14.925280       14.948580
  H            5.711550       17.360330       15.525530
  H            1.064920       28.583040       15.358670
  H           -6.229500       18.911670       15.228840
  H           13.160460       15.061700       19.558390
  H           17.832430        4.132530       19.703450
  H           25.218110       13.600180       19.422590
  H           14.449030       17.705950       17.433990
  H           14.882280        3.726880       17.661780
  H           27.056940       11.129810       17.537630
  H            4.507930       14.519710       17.520210
  H            4.077700       28.974530       17.237060
  H           -7.953600       21.344280       17.191660
  H           12.206890       17.922480       18.372440
  H           15.923930        1.705180       18.540790
  H           28.348810       13.049320       18.318580
  H            6.770860       14.354310       16.648960
  H            3.069540       31.052450       16.457210
  H           -9.300920       19.469100       16.390110
  H           10.739210       18.420030       19.544160
  H           -2.368410       32.349080       19.559990
  H           -7.796680       14.212260       19.568350
  H            8.206660       14.109580       15.358670
  H           21.189240        0.271560       15.317050
  H           26.594590       18.363910       15.311980
  H            9.653940       20.559680       15.217290
  H           -3.761350       30.338030       15.214510
  H           -5.577890       13.916750       15.313070
  H            9.100480       11.929750       19.743380
  H           22.534840        2.166280       19.544850
  H           24.295340       18.650330       19.724160
  H           10.608950       15.599490       15.123210
  H           18.526730        1.533160       15.116140
  H           26.604470       15.497580       15.243380
  H            8.182340       16.987860       19.743180
  H            0.242660       30.920300       19.696280
  H           -8.024690       17.112780       19.762390
  H            7.829340       18.182320       16.379550
  H           -0.683280       30.042420       16.338830
  H           -6.696060       16.830810       16.336840
  H           11.054580       14.222690       18.587490
  H           19.462980        2.571300       18.519390
  H           25.399860       15.847000       18.595950
  H            6.919500       20.371080       17.042420
  H           -2.081910       28.110430       16.980300
  H           -4.306830       16.573010       16.932510
  H           11.940330       12.027810       17.884200
  H           20.808280        4.531400       17.844670
  H           23.041650       16.058280       17.904610
  C            4.589870       23.551790       14.792370
  C           -3.750630       24.511480       14.531930
  C           -0.439410       16.913190       14.533520
  C           14.126500        8.960830       10.252950
  C           22.492440        7.960790       10.133680
  C           19.161780       15.589220       10.276850
  C            6.830300       24.426470       14.420620
  C           -5.665450       26.011110       14.592060
  C           -0.868650       14.540960       14.862360
  C           11.882620        8.047050       10.488410
  C           24.383430        6.430250       10.119240
  C           19.538660       17.993070       10.241300
  C            6.422810       21.928070       14.445610
  C           -3.320800       26.942580       14.392140
  C           -2.780680       16.137030       14.390150
  C           12.256490       10.547630       10.536800
  C           22.022620        5.543910       10.360280
  C           21.475520       16.386550       10.572240
  C            5.959330       23.333720       14.568070
  C           -4.277400       25.813210       14.516790
  C           -1.341600       15.839580       14.613460
  C           12.744950        9.152590       10.410360
  C           22.997860        6.651280       10.185050
  C           20.037370       16.684330       10.349820
  C            6.330660       25.722430       14.492800
  C           -6.516700       24.913750       14.687140
  C            0.496500       14.320010       15.014790
  C           12.404520        6.759490       10.419610
  C           25.252280        7.513080       10.022770
  C           18.171360       18.199420       10.076930
  C            4.081980       24.848000       14.813880
  C           -4.604270       23.412390       14.568960
  C            0.928350       16.686140       14.647020
  C           14.653700        7.673030       10.235730
  C           23.363600        9.045940       10.086890
  C           17.790540       15.796640       10.167230
  C            4.487470       27.348730       14.632480
  C           -6.960850       22.484920       14.660950
  C            2.851390       15.060500       14.924190
  C           14.287780        5.169970       10.366050
  C           25.743630        9.929590       10.080610
  C           15.834550       17.393400       10.032820
  C            4.954020       25.938130       14.660950
  C           -5.992450       23.611300       14.650900
  C            1.402290       15.384830       14.882480
  C           13.791840        6.568220       10.325030
  C           24.750110        8.824430       10.042380
  C           17.290860       17.105510       10.075640
  C            5.947300       16.685950       14.706250
  C            1.497450       29.146970       14.536210
  C           -6.992680       19.011130       14.461340
  C           12.798130       15.711120       10.364760
  C           17.282310        3.437270       10.515590
  C           25.821550       13.413160       10.294770
  C            9.743370       16.780940       12.409510
  C           17.976400        0.202400       12.434100
  C           28.173510       15.562280       12.410310
  C            8.932660       15.677080       12.538640
  C            0.785280       32.302900       12.499120
  C           -9.450840       16.819070       12.503700
  C           13.436750       17.530530       11.830470
  C           15.468770        3.046390       12.074890
  C           26.917470       11.990480       11.920970
  C            5.228580       14.993350       13.128430
  C            3.247940       29.417180       12.882420
  C           -8.235990       20.413260       12.929810
  C           12.119850       17.621370       12.276200
  C           16.058230        1.840590       12.443760
  C           27.640230       13.089270       12.383430
  C            6.532760       14.898700       12.649150
  C            2.658620       30.608760       12.467160
  C           -8.979090       19.303700       12.532570
  C            7.567540       15.723330       13.138190
  C            1.455950       31.080950       13.030860
  C           -8.723780       18.011270       13.038330
  C           11.116800       16.736760       11.826790
  C           17.296380        1.423470       11.913310
  C           27.450290       14.381500       11.851080
  C            9.778280       18.809820       13.946710
  C           -2.318970       31.380080       13.977980
  C           -7.150760       14.577940       13.979970
  C            8.884870       13.623590       11.028520
  C           21.054500        1.078760       10.909750
  C           25.825240       17.831940       10.996960
  C            9.268300       20.049590       14.339080
  C           -3.130410       30.298270       14.330820
  C           -5.825390       14.464890       14.408370
  C            9.398170       12.378480       10.654570
  C           21.845720        2.152990       10.494680
  C           24.484340       17.981950       10.635560
  C            9.414020       14.321100       12.128160
  C           20.252140        1.171530       12.060860
  C           26.193200       17.041940       12.100480
  C            9.253250       18.130580       12.833640
  C           -1.481210       31.318440       12.850360
  C           -7.479950       15.326040       12.835930
  C           10.461130       11.844700       11.373590
  C           21.815980        3.336070       11.224550
  C           23.508180       17.316420       11.368720
  C            8.212770       20.602750       13.623340
  C           -3.086430       29.143570       13.559330
  C           -4.826390       15.122870       13.698610
  C           11.485530       15.821670       10.816760
  C           17.857450        2.229000       10.899690
  C           26.554790       14.499130       10.767180
  C            7.245990       16.576700       14.213730
  C            0.921510       30.339390       14.104420
  C           -7.746830       17.913410       14.052740
  C           13.770100       16.551900       10.898600
  C           16.102560        3.846320       11.128180
  C           25.997770       12.167530       10.889930
  C            4.941580       15.910670       14.137070
  C            2.649840       28.687170       13.906490
  C           -7.228300       20.250710       13.875930
  C            8.197050       18.729600       12.129650
  C           -1.468140       30.132310       12.100380
  C           -6.437390       15.939180       12.122680
  C           10.473230       13.736310       12.838120
  C           20.266980        2.376140       12.782360
  C           25.174830       16.397900       12.820790
  C            7.666830       19.956760       12.516840
  C           -2.257390       29.040780       12.446850
  C           -5.115040       15.853180       12.547700
  C           11.010070       12.508950       12.465860
  C           21.034690        3.462980       12.371080
  C           23.836380       16.519240       12.461680
  C            4.647150       23.596270       19.270470
  C           -3.691910       24.524800       19.645610
  C           -0.462390       16.649190       10.018190
  C           14.110410        8.880920       14.945000
  C           22.474420        8.115900       15.198380
  C           19.192570       15.593950       15.074720
  C            6.864210       24.438930       19.797440
  C           -5.608070       26.019590       19.540670
  C           -0.719580       14.391750       19.390740
  C           11.896220        7.980340       15.386350
  C           24.345500        6.559800       15.172890
  C           19.529070       18.002350       15.042970
  C            6.493230       21.959680       19.341850
  C           -3.251800       26.947430       19.413340
  C           -2.680800       15.998250       19.472470
  C           12.282490       10.492860       15.353190
  C           21.980790        5.703940       15.435430
  C           21.494950       16.430100       15.387240
  C            6.017470       23.364480       19.479440
  C           -4.217080       25.824220       19.541670
  C           -1.235940       15.677950       19.617530
  C           12.746940        9.085800       15.214310
  C           22.964490        6.800930       15.252140
  C           20.051550       16.703310       15.156060
  C            6.249790       25.649690        9.945710
  C           -6.459310       24.922880       19.635650
  C            0.648110       14.163160       19.514890
  C           12.413040        6.688520       15.308390
  C           25.229120        7.629680       15.068750
  C           18.158230       18.185120       14.873610
  C            4.133530       24.888610       19.333290
  C           -4.544360       23.424480       19.690610
  C            0.911860       16.431830       10.092460
  C           14.636190        7.592050       14.914330
  C           23.360740        9.187460       15.145210
  C           17.818130       15.778430       14.958540
  C            4.506120       27.378810       19.663630
  C           -6.913590       22.501840       19.657650
  C            2.974970       14.916900       19.801820
  C           14.292840        5.087950       15.160450
  C           25.744220       10.045570       15.130080
  C           15.828780       17.348400       14.861170
  C            4.980400       25.965930       19.646210
  C           -5.935240       23.621380       19.680450
  C            1.519140       15.223920       19.813760
  C           13.789360        6.488030       15.105590
  C           24.744230        8.946560       15.094240
  C           17.292910       17.078290       14.869230
  C            6.081700       16.561090       19.754330
  C            1.633770       29.291380       19.592840
  C           -7.199810       19.090990       19.633660
  C           12.734850       15.897900       15.107180
  C           17.172590        3.197000       15.191210
  C           25.931160       13.465460       15.322530
  C            9.853690       16.778850       17.449220
  C           18.020850        0.240740       17.449620
  C           28.211290       15.674180       17.432000
  C            9.043660       15.671570       17.510950
  C           19.388310        0.113460       17.457390
  C           -9.455680       16.910830       17.464160
  C           13.608270       17.234880       16.930420
  C           15.686890        3.252810       17.104150
  C           26.947820       12.090560       17.040130
  C            5.308870       15.064840       18.012530
  C            3.234610       29.397850       17.777470
  C           -7.961660       20.409440       17.746410
  C           12.323780       17.356320       17.455990
  C           16.279630        2.088550       17.591590
  C           27.679450       13.192710       17.479190
  C            6.607710       14.979110       17.518620
  C            2.649900       30.584740       17.339110
  C           -8.733740       19.337580       17.304860
  C            7.668540       15.707660       18.090390
  C            1.522000       31.134880       17.978280
  C           -8.730390       18.107130       17.987940
  C           11.221630       16.722630       16.852760
  C           17.341240        1.460720       16.912400
  C           27.522220       14.464230       16.894970
  C            9.939550       18.852890       18.948790
  C           -2.332240       31.451920       18.947690
  C           -7.045350       14.682900       18.937840
  C            8.978460       13.641010       15.964890
  C           21.143230        1.169670       15.927650
  C           25.829080       17.905450       15.932530
  C            9.432820       20.099680       19.331600
  C           -3.137080       30.369240       19.312680
  C           -5.698010       14.521730       19.273950
  C            9.461030       12.388980       15.572820
  C           21.920500        2.267070       15.548230
  C           24.492950       18.045260       15.545040
  C            9.535930       14.327190       17.058650
  C           20.253530        1.252260       17.012850
  C           26.189080       17.112550       17.037050
  C            9.370720       18.130510       17.884800
  C           -1.431500       31.356200       17.872950
  C           -7.430520       15.498890       17.859410
  C           10.533320       11.830430       16.257000
  C           21.785090        3.466590       16.236980
  C           23.504320       17.370490       16.251920
  C            8.338560       20.627670       18.654490
  C           -3.028300       29.174450       18.610880
  C           -4.727920       15.200520       18.545670
  C           11.454920       16.032350       15.646790
  C           17.745030        2.025060       15.686920
  C           26.677150       14.553170       15.770450
  C            7.374800       16.468760       19.239600
  C            1.064310       30.481710       19.140440
  C           -7.984600       18.029360       19.181460
  C           13.804810       16.485980       15.773530
  C           16.150680        3.805810       15.912220
  C           26.051290       12.249390       15.987790
  C            5.053300       15.865610       19.123720
  C            2.705080       28.747180       18.888660
  C           -7.183650       20.268750       18.891540
  C            8.285870       18.714270       17.207590
  C           -1.368820       30.137260       17.174940
  C           -6.419420       16.177240       17.157110
  C           10.602860       13.716060       17.740140
  C           20.154680        2.481340       17.688070
  C           25.155700       16.465150       17.738340
  C            7.764770       19.949690       17.579650
  C           -2.152570       29.044220       17.534050
  C           -5.073970       16.041850       17.490840
  C           11.109500       12.478860       17.347270
  C           20.903940        3.590670       17.308940
  C           23.821110       16.579840       17.354440
  O            7.732120       21.871120       14.003260
  O           -3.940040       28.067980       13.882600
  O           -3.495530       14.980560       14.137970
  O           10.960490       10.577770       11.013390
  O           22.648280        4.400390       10.820540
  O           22.158210       17.504180       11.011600
  O            5.747160       20.940440       14.678180
  O           -2.136220       26.892860       14.673800
  O           -3.272720       17.252350       14.407870
  O           12.907650       11.546370       10.281820
  O           20.823520        5.627750       10.155280
  O           21.995680       15.296230       10.411150
  O            3.154060       27.425900       14.274070
  O           -6.374420       21.319450       14.204970
  O            3.614290       16.145240       14.533820
  O           15.594910        5.119270       10.811880
  O           25.158200       11.112080       10.486620
  O           15.113560       16.332190       10.547350
  O            5.191340       28.315160       14.864950
  O           -8.128610       22.570410       15.000050
  O            3.318580       13.977350       15.229040
  O           13.629770        4.185090       10.081510
  O           27.020190        9.886320       19.777720
  O           15.426720       18.506430       19.585870
  O            7.844490       21.893220       19.045460
  O           -3.871340       28.102720       18.973780
  O           -3.367480       14.973980       18.849530
  O           10.999780       10.555520       15.865830
  O           22.607620        4.545960       15.860650
  O           22.156850       17.546080       15.863440
  O            5.778080       20.979160       19.452560
  O           -2.058170       26.871890       19.649590
  O           -3.202890       17.036340       19.841740
  O           12.945270       11.477210       15.071040
  O           20.779360        5.802190       15.259610
  O           22.034320       15.352800       15.200070
  O            3.190340       27.472950       19.248170
  O           -6.318460       21.320040       19.258820
  O            3.733630       16.052920       19.579200
  O           15.640570        5.044560       15.467690
  O           25.181270       11.199200       15.639030
  O           15.121800       16.253920       15.325620
  O            5.091970       28.264300       10.023370
  O           -8.190530       22.533490        9.960150
  O            3.353730       13.723320        9.964430
  O           13.605560        4.096270       14.996470
  O           26.912050        9.947240       14.797950
  O           15.311060       18.403700       14.541180
  H            4.033030       22.764830       24.872890
  H           -2.579390       24.463760       24.443390
  H           -0.741200       17.987630       24.306890
  H           14.859100        9.913920       20.134840
  H           21.506780        8.180620       20.123890
  H           19.671890       14.664770       20.297520
  H            7.980140       24.330970       24.199370
  H           -5.972910       27.098800       24.535780
  H           -1.480770       13.793170       24.880650
  H           10.906660        8.282400       20.566730
  H           24.859540        5.492020       20.109360
  H           20.313390       18.914570       20.247450
  H            7.074490       26.663690       24.344920
  H           -7.502140       25.117470       24.719070
  H            0.982170       13.401030       25.158230
  H           11.851500        5.962970       20.431130
  H           26.421220        7.448520       19.925070
  H           17.850760       19.279080       19.941600
  H            3.109050       25.100820       24.900070
  H           -4.115600       22.478490       24.493470
  H            1.727640       17.581940       24.498940
  H           15.817980        7.591530       20.114530
  H           23.073380       10.140880       20.050420
  H           17.193530       15.033780       20.114140
  H            5.870740       17.152180       20.641800
  H            1.259270       28.793750       20.483700
  H           -6.624100       19.009800       20.552700
  H           12.994310       15.434830       24.134950
  H           17.591690        3.702300       24.203950
  H           25.357510       13.628420       24.423480
  H           14.288880       18.268790       22.194240
  H           14.632660        3.443690       22.498290
  H           27.149490       11.092960       22.336310
  H            4.536160       14.451950       22.655990
  H            4.239520       29.132570       22.347660
  H           -8.333560       21.462110       22.437460
  H           11.984730       18.452190       22.977270
  H           15.644480        1.320270       23.148710
  H           28.430570       13.003080       23.152600
  H            6.817630       14.270920       21.805260
  H            3.229770       31.229260       21.617190
  H           -9.651180       19.535800       21.736660
  H           10.639260       18.419650       24.513980
  H           -2.208180       32.329460       24.584160
  H           -7.844070       14.219390       24.549820
  H            8.208200       14.156550       20.364330
  H           21.104420        0.267590       20.239380
  H           26.680360       18.360630       20.322910
  H            9.855800       20.630500       20.180440
  H           -3.807800       30.437440       20.165110
  H           -5.407440       13.904460       20.119610
  H            9.133350       11.955130       24.667400
  H           22.681450        2.284310       24.650670
  H           24.318540       18.711980       24.627870
  H           10.823970       15.257950       20.333560
  H           18.857130        1.985640       20.362040
  H           26.526970       15.538020       20.238880
  H            8.119760       17.247640       24.626880
  H            0.126480       30.781460       24.563850
  H           -7.476320       17.034380       24.482710
  H            7.865120       18.300580       21.224820
  H           -0.730850       30.135570       21.188280
  H           -6.570270       16.593180       21.186290
  H           10.990390       14.332300       23.646210
  H           19.745590        2.552990       23.628690
  H           25.527510       15.854520       23.627300
  H            6.932800       20.477680       21.921440
  H           -2.138170       28.205390       21.812820
  H           -4.236090       16.434370       21.949320
  H           11.932590       12.156050       22.975480
  H           21.111630        4.471640       22.889360
  H           23.157490       16.078410       22.982050
  H            4.099030       22.826190       28.992270
  H           -2.519590       24.479770       29.613720
  H           -0.796720       17.709730       20.160130
  H           14.834910        9.830200       24.751520
  H           21.490270        8.349940       25.191680
  H           19.715490       14.675000       25.097300
  H            7.922910       24.258720       19.964600
  H           -5.920230       27.102240       29.415600
  H           -1.298690       13.660350       29.070620
  H           10.932120        8.216950       25.544420
  H           24.806380        5.615750       25.159320
  H           20.289930       18.934510       25.052490
  H            6.975430       26.573730       20.155150
  H           -7.448010       25.121530       29.595800
  H            1.163900       13.252430       29.308570
  H           11.864450        5.896480       25.398360
  H           26.394870        7.547340       24.965380
  H           17.822270       19.258680       24.740080
  H            3.172950       25.149530       29.091530
  H           -4.051560       22.492060       29.681720
  H            1.680910       17.326390       20.283390
  H           15.791560        7.511190       24.710510
  H           23.085540       10.287260       25.110930
  H           17.236690       15.002670       24.904550
  H            5.803470       17.437730       25.481500
  H            1.156830       28.660430       25.314630
  H           -6.137580       18.989060       25.184810
  H           13.252370       15.139100       29.514360
  H           17.924350        4.209930       29.659420
  H           25.310020       13.677570       29.378560
  H           14.540950       17.783340       27.389950
  H           14.974200        3.804270       27.617750
  H           27.148860       11.207210       27.493600
  H            4.599850       14.597100       27.476170
  H            4.169620       29.051920       27.193030
  H           -7.861680       21.421670       27.147630
  H           12.298810       17.999870       28.328400
  H           16.015850        1.782570       28.496760
  H           28.440720       13.126710       28.274540
  H            6.862770       14.431700       26.604930
  H            3.161460       31.129840       26.413170
  H           -9.209000       19.546490       26.346070
  H           10.831130       18.497420       29.500120
  H           -2.276490       32.426470       29.515950
  H           -7.704760       14.289650       29.524310
  H            8.298580       14.186970       25.314630
  H           21.281160        0.348950       25.273020
  H           26.686510       18.441310       25.267940
  H            9.745860       20.637070       25.173260
  H           -3.669430       30.415420       25.170470
  H           -5.485970       13.994140       25.269040
  H            9.192400       12.007140       29.699340
  H           22.626760        2.243670       29.500820
  H           24.387260       18.727720       29.680130
  H           10.700870       15.676880       25.079180
  H           18.618650        1.610550       25.072110
  H           26.696390       15.574970       25.199340
  H            8.274260       17.065250       29.699140
  H            0.334580       30.997690       29.652250
  H           -7.932770       17.190170       29.718360
  H            7.921260       18.259710       26.335520
  H           -0.591360       30.119810       26.294800
  H           -6.604140       16.908200       26.292810
  H           11.146490       14.300080       28.543450
  H           19.554900        2.648690       28.475350
  H           25.491770       15.924390       28.551920
  H            7.011420       20.448470       26.998390
  H           -1.989990       28.187830       26.936260
  H           -4.214910       16.650400       26.888470
  H           12.032240       12.105200       27.840160
  H           20.900200        4.608790       27.800640
  H           23.133570       16.135670       27.860570
  C            4.681790       23.629180       24.748340
  C           -3.658710       24.588870       24.487890
  C           -0.347500       16.990580       24.489480
  C           14.218420        9.038220       20.208920
  C           22.584360        8.038180       20.089640
  C           19.253690       15.666610       20.232810
  C            6.922220       24.503860       24.376580
  C           -5.573540       26.088500       24.548020
  C           -0.776740       14.618350       24.818330
  C           11.974540        8.124440       20.444370
  C           24.475340        6.507640       20.075210
  C           19.630570       18.070460       20.197270
  C            6.514730       22.005460       24.401570
  C           -3.228880       27.019970       24.348110
  C           -2.688770       16.214420       24.346120
  C           12.348410       10.625020       20.492760
  C           22.114540        5.621300       20.316240
  C           21.567440       16.463940       20.528200
  C            6.051250       23.411110       24.524030
  C           -4.185480       25.890600       24.472760
  C           -1.249680       15.916970       24.569430
  C           12.836870        9.229980       20.366320
  C           23.089780        6.728670       20.141020
  C           20.129290       16.761720       20.305790
  C            6.422580       25.799820       24.448760
  C           -6.424780       24.991140       24.643100
  C            0.588420       14.397400       24.970750
  C           12.496440        6.836880       20.375580
  C           25.344200        7.590470       19.978730
  C           18.263280       18.276810       20.032890
  C            4.173900       24.925390       24.769840
  C           -4.512350       23.489780       24.524930
  C            1.020270       16.763530       24.602980
  C           14.745610        7.750420       20.191690
  C           23.455520        9.123330       20.042850
  C           17.882460       15.874030       20.123200
  C            4.579390       27.426120       24.588450
  C           -6.868940       22.562310       24.616920
  C            2.943310       15.137890       24.880160
  C           14.379700        5.247360       20.322020
  C           25.835550       10.006980       20.036580
  C           15.926470       17.470790       19.988790
  C            5.045930       26.015530       24.616920
  C           -5.900530       23.688690       24.606860
  C            1.494210       15.462220       24.838440
  C           13.883760        6.645610       20.281000
  C           24.842030        8.901820       19.998350
  C           17.382780       17.182900       20.031600
  C            6.039220       16.763350       24.662220
  C            1.589370       29.224360       24.492170
  C           -6.900770       19.088520       24.417300
  C           12.890040       15.788510       20.320720
  C           17.374230        3.514660       20.471550
  C           25.913470       13.490550       20.250730
  C            9.835290       16.858330       22.365480
  C           18.068320        0.279790       22.390070
  C           28.265430       15.639670       22.366270
  C            9.024580       15.754470       22.494610
  C            0.877190       32.380290       22.455080
  C           -9.358920       16.896460       22.459660
  C           13.528670       17.607920       21.786440
  C           15.560690        3.123780       22.030860
  C           27.009390       12.067870       21.876940
  C            5.320500       15.070740       23.084400
  C            3.339860       29.494570       22.838390
  C           -8.144070       20.490660       22.885780
  C           12.211770       17.698760       22.232170
  C           16.150140        1.917980       22.399730
  C           27.732150       13.166660       22.339390
  C            6.624680       14.976090       22.605120
  C            2.750540       30.686160       22.423120
  C           -8.887170       19.381090       22.488530
  C            7.659460       15.800720       23.094150
  C            1.547870       31.158340       22.986830
  C           -8.631860       18.088660       22.994300
  C           11.208720       16.814150       21.782760
  C           17.388300        1.500860       21.869270
  C           27.542210       14.458890       21.807050
  C            9.870190       18.887210       23.902680
  C           -2.227060       31.457470       23.933940
  C           -7.058840       14.655340       23.935930
  C            8.976790       13.700980       20.984490
  C           21.146420        1.156150       20.865710
  C           25.917160       17.909330       20.952930
  C            9.360210       20.126980       24.295040
  C           -3.038490       30.375660       24.286780
  C           -5.733470       14.542280       24.364340
  C            9.490090       12.455870       20.610540
  C           21.937640        2.230380       20.450650
  C           24.576260       18.059340       20.591520
  C            9.505940       14.398500       22.084120
  C           20.344060        1.248920       22.016820
  C           26.285110       17.119330       22.056440
  C            9.345170       18.207970       22.789600
  C           -1.389290       31.395830       22.806330
  C           -7.388030       15.403440       22.791890
  C           10.553050       11.922090       21.329560
  C           21.907900        3.413460       21.180520
  C           23.600100       17.393810       21.324680
  C            8.304690       20.680140       23.579310
  C           -2.994520       29.220960       23.515290
  C           -4.734480       15.200260       23.654580
  C           11.577450       15.899060       20.772720
  C           17.949370        2.306400       20.855660
  C           26.646710       14.576520       20.723140
  C            7.337910       16.654090       24.169700
  C            1.013430       30.416780       24.060380
  C           -7.654910       17.990800       24.008710
  C           13.862020       16.629290       20.854560
  C           16.194480        3.923710       21.084150
  C           26.089690       12.244920       20.845900
  C            5.033500       15.988060       24.093040
  C            2.741750       28.764560       23.862460
  C           -7.136390       20.328110       23.831890
  C            8.288970       18.806990       22.085620
  C           -1.376230       30.209700       22.056350
  C           -6.345470       16.016570       22.078650
  C           10.565140       13.813700       22.794080
  C           20.358900        2.453540       22.738330
  C           25.266740       16.475290       22.776760
  C            7.758750       20.034150       22.472800
  C           -2.165470       29.118170       22.402810
  C           -5.023120       15.930570       22.503670
  C           11.101990       12.586340       22.421830
  C           21.126600        3.540370       22.327050
  C           23.928300       16.596630       22.417650
  C            4.739070       23.673660       29.226430
  C           -3.599990       24.602190       29.601570
  C           -0.370470       16.726580       19.974150
  C           14.202330        8.958310       24.900960
  C           22.566340        8.193290       25.154340
  C           19.284490       15.671340       25.030690
  C            6.956130       24.516320       29.753400
  C           -5.516150       26.096980       29.496640
  C           -0.627660       14.469140       29.346700
  C           11.988140        8.057730       25.342310
  C           24.437420        6.637190       25.128860
  C           19.620990       18.079740       24.998930
  C            6.585150       22.037080       29.297820
  C           -3.159890       27.024820       29.369300
  C           -2.588890       16.075640       29.428440
  C           12.374410       10.570250       25.309160
  C           22.072710        5.781330       25.391390
  C           21.586870       16.507500       25.343210
  C            6.109390       23.441870       29.435410
  C           -4.125160       25.901620       29.497630
  C           -1.144020       15.755340       29.573500
  C           12.838860        9.163190       25.170270
  C           23.056410        6.878320       25.208100
  C           20.143470       16.780710       25.112030
  C            6.341710       25.727080       19.901680
  C           -6.367400       25.000270       29.591620
  C            0.740020       14.240550       29.470850
  C           12.504960        6.765920       25.264360
  C           25.321040        7.707070       25.024720
  C           18.250150       18.262510       24.829580
  C            4.225450       24.966010       29.289250
  C           -4.452440       23.501870       29.646570
  C            1.003780       16.509220       20.048430
  C           14.728110        7.669440       24.870300
  C           23.452660        9.264850       25.101180
  C           17.910050       15.855820       24.914500
  C            4.598040       27.456200       29.619590
  C           -6.821680       22.579230       29.613620
  C            3.066880       14.994300       29.757780
  C           14.384760        5.165340       25.116410
  C           25.836140       10.122960       25.086040
  C           15.920690       17.425790       24.817130
  C            5.072320       26.043320       29.602170
  C           -5.843320       23.698770       29.636420
  C            1.611060       15.301310       29.769730
  C           13.881270        6.565420       25.061550
  C           24.836150        9.023950       25.050200
  C           17.384830       17.155680       24.825200
  C            6.173620       16.638480       29.710290
  C            1.725690       29.368770       29.548810
  C           -7.107890       19.168380       29.589630
  C           12.826770       15.975290       25.063150
  C           17.264510        3.274390       25.147170
  C           26.023080       13.542860       25.278490
  C            9.945610       16.856240       27.405190
  C           18.112770        0.318140       27.405590
  C           28.303210       15.751570       27.387960
  C            9.135580       15.748960       27.466910
  C           19.480230        0.190850       27.413350
  C           -9.363770       16.988220       27.420120
  C           13.700190       17.312270       26.886380
  C           15.778810        3.330200       27.060110
  C           27.039740       12.167960       26.996100
  C            5.400780       15.142230       27.968500
  C            3.326520       29.475240       27.733440
  C           -7.869750       20.486830       27.702370
  C           12.415690       17.433710       27.411960
  C           16.371550        2.165940       27.547560
  C           27.771370       13.270110       27.435150
  C            6.699630       15.056500       27.474580
  C            2.741820       30.662130       27.295070
  C           -8.641820       19.414970       27.260830
  C            7.760460       15.785060       28.046350
  C            1.613920       31.212270       27.934250
  C           -8.638470       18.184520       27.943900
  C           11.313550       16.800020       26.808730
  C           17.433150        1.538110       26.868360
  C           27.614130       14.541620       26.850940
  C           10.031470       18.930280       28.904750
  C           -2.240320       31.529310       28.903660
  C           -6.953440       14.760290       28.893800
  C            9.070380       13.718400       25.920850
  C           21.235150        1.247070       25.883620
  C           25.921000       17.982840       25.888500
  C            9.524730       20.177080       29.287560
  C           -3.045160       30.446630       29.268650
  C           -5.606090       14.599120       29.229920
  C            9.552940       12.466380       25.528790
  C           22.012410        2.344460       25.504200
  C           24.584870       18.122650       25.501010
  C            9.627850       14.404580       27.014610
  C           20.345450        1.329650       26.968820
  C           26.280990       17.189940       26.993010
  C            9.462630       18.207900       27.840760
  C           -1.339580       31.433590       27.828910
  C           -7.338600       15.576280       27.815370
  C           10.625230       11.907820       26.212960
  C           21.877010        3.543980       26.192950
  C           23.596240       17.447890       26.207880
  C            8.430480       20.705060       28.610460
  C           -2.936380       29.251840       28.566850
  C           -4.636010       15.277910       28.501640
  C           11.546840       16.109740       25.602760
  C           17.836950        2.102450       25.642880
  C           26.769070       14.630570       25.726410
  C            7.466720       16.546150       29.195570
  C            1.156230       30.559100       29.096410
  C           -7.892680       18.106750       29.137430
  C           13.896730       16.563370       25.729500
  C           16.242600        3.883200       25.868190
  C           26.143210       12.326780       25.943750
  C            5.145210       15.943000       29.079680
  C            2.797000       28.824570       28.844620
  C           -7.091730       20.346140       28.847510
  C            8.377780       18.791660       27.163560
  C           -1.276900       30.214650       27.130900
  C           -6.327500       16.254630       27.113080
  C           10.694780       13.793450       27.696100
  C           20.246590        2.558730       27.644030
  C           25.247620       16.542540       27.694310
  C            7.856680       20.027080       27.535610
  C           -2.060650       29.121610       27.490010
  C           -4.982050       16.119240       27.446800
  C           11.201410       12.556260       27.303240
  C           20.995860        3.668060       27.264910
  C           23.913030       16.657230       27.310410
  O            7.824040       21.948510       23.959230
  O           -3.848120       28.145370       23.838560
  O           -3.403610       15.057950       24.093930
  O           11.052410       10.655160       20.969350
  O           22.740190        4.477780       20.776510
  O           22.250130       17.581570       20.967560
  O            5.839080       21.017830       24.634140
  O           -2.044300       26.970250       24.629760
  O           -3.180800       17.329740       24.363840
  O           12.999560       11.623760       20.237790
  O           20.915440        5.705140       20.111250
  O           22.087600       15.373630       20.367120
  O            3.245980       27.503290       24.230030
  O           -6.282500       21.396840       24.160940
  O            3.706210       16.222630       24.489780
  O           15.686830        5.196670       20.767840
  O           25.250110       11.189470       20.442580
  O           15.205470       16.409580       20.503310
  O            5.283260       28.392550       24.820920
  O           -8.036690       22.647800       24.956020
  O            3.410500       14.054740       25.185010
  O           13.721690        4.262480       20.037470
  O           27.112110        9.963720       29.733690
  O           15.518640       18.583820       29.541840
  O            7.936400       21.970610       29.001430
  O           -3.779430       28.180110       28.929740
  O           -3.275560       15.051370       28.805490
  O           11.091700       10.632910       25.821790
  O           22.699530        4.623350       25.816610
  O           22.248770       17.623470       25.819400
  O            5.870000       21.056550       29.408530
  O           -1.966250       26.949280       29.605560
  O           -3.110970       17.113740       29.797710
  O           13.037190       11.554600       25.027010
  O           20.871270        5.879580       25.215570
  O           22.126240       15.430200       25.156040
  O            3.282260       27.550340       29.204130
  O           -6.226540       21.397440       29.214780
  O            3.825550       16.130310       29.535170
  O           15.732490        5.121950       25.423650
  O           25.273180       11.276590       25.594990
  O           15.213720       16.331310       25.281580
  O            5.183890       28.341690       19.979330
  O           -8.098610       22.610880       19.916110
  O            3.445640       13.800710       19.920390
  O           13.697480        4.173660       24.952440
  O           27.003970       10.024630       24.753910
  O           15.402980       18.481090       24.497150
  H            4.124950       22.842220       34.828850
  H           -2.487480       24.541150       34.399350
  H           -0.649280       18.065030       34.262860
  H           14.951020        9.991320       30.090810
  H           21.598700        8.258010       30.079860
  H           19.763810       14.742160       30.253490
  H            8.072060       24.408360       34.155330
  H           -5.880990       27.176190       34.491740
  H           -1.388850       13.870560       34.836620
  H           10.998580        8.359790       30.522700
  H           24.951460        5.569410       30.065320
  H           20.405310       18.991960       30.203410
  H            7.166410       26.741080       34.300890
  H           -7.410220       25.194860       34.675030
  H            1.074090       13.478420       35.114190
  H           11.943420        6.040360       30.387100
  H           26.513140        7.525910       29.881040
  H           17.942680       19.356480       29.897560
  H            3.200970       25.178220       34.856030
  H           -4.023690       22.555880       34.449430
  H            1.819550       17.659330       34.454910
  H           15.909900        7.668920       30.070500
  H           23.165300       10.218270       30.006380
  H           17.285440       15.111180       30.070100
  H            5.962660       17.229570       30.597770
  H            1.351190       28.871140       30.439670
  H           -6.532190       19.087190       30.508660
  H           13.086230       15.512220       34.090920
  H           17.683610        3.779690       34.159910
  H           25.449430       13.705810       34.379440
  H           14.380800       18.346180       32.150200
  H           14.724580        3.521080       32.454260
  H           27.241410       11.170360       32.292270
  H            4.628070       14.529340       32.611960
  H            4.331440       29.209960       32.303620
  H           -8.241640       21.539500       32.393420
  H           12.076650       18.529580       32.933240
  H           15.736400        1.397660       33.104680
  H           28.522490       13.080470       33.108560
  H            6.909550       14.348310       31.761220
  H            3.321680       31.306650       31.573150
  H           -9.559260       19.613200       31.692620
  H           10.731180       18.497040       34.469940
  H           -2.116260       32.406850       34.540130
  H           -7.752160       14.296780       34.505780
  H            8.300120       14.233940       30.320290
  H           21.196340        0.344980       30.195350
  H           26.772280       18.438020       30.278880
  H            9.947720       20.707890       30.136410
  H           -3.715880       30.514830       30.121070
  H           -5.315530       13.981850       30.075580
  H            9.225270       12.032520       34.623360
  H           22.773370        2.361700       34.606640
  H           24.410460       18.789370       34.583840
  H           10.915890       15.335340       30.289530
  H           18.949050        2.063030       30.318000
  H           26.618880       15.615410       30.194850
  H            8.211680       17.325030       34.582840
  H            0.218400       30.858850       34.519820
  H           -7.384410       17.111770       34.438680
  H            7.957040       18.377970       31.180790
  H           -0.638930       30.212960       31.144250
  H           -6.478350       16.670570       31.142260
  H           11.082310       14.409690       33.602180
  H           19.837500        2.630380       33.584660
  H           25.619430       15.931910       33.583260
  H            7.024720       20.555070       31.877410
  H           -2.046250       28.282780       31.768790
  H           -4.144170       16.511760       31.905280
  H           12.024500       12.233440       32.931440
  H           21.203550        4.549030       32.845330
  H           23.249410       16.155800       32.938020
  H            4.190950       22.903580       38.948230
  H           -2.427680       24.557160       39.569680
  H           -0.704800       17.787120       30.116100
  H           14.926830        9.907590       34.707490
  H           21.582190        8.427330       35.147640
  H           19.807400       14.752390       35.053260
  H            8.014830       24.336110       29.920560
  H           -5.828310       27.179630       39.371560
  H           -1.206770       13.737740       39.026590
  H           11.024040        8.294350       35.500380
  H           24.898300        5.693140       35.115290
  H           20.381850       19.011900       35.008460
  H            7.067350       26.651130       30.111120
  H           -7.356090       25.198920       39.551760
  H            1.255820       13.329820       39.264530
  H           11.956370        5.973870       35.354330
  H           26.486790        7.624740       34.921340
  H           17.914190       19.336070       34.696040
  H            3.264860       25.226920       39.047490
  H           -3.959640       22.569450       39.637680
  H            1.772830       17.403780       30.239350
  H           15.883470        7.588580       34.666470
  H           23.177460       10.364650       35.066900
  H           17.328610       15.080060       34.860510
  H            5.895390       17.515120       35.437460
  H            1.248750       28.737820       35.270600
  H           -6.045660       19.066450       35.140770
  H           13.344290       15.216490       39.470320
  H           18.016270        4.287320       39.615380
  H           25.401940       13.754960       39.334520
  H           14.632860       17.860730       37.345920
  H           15.066120        3.881670       37.573710
  H           27.240780       11.284600       37.449560
  H            4.691770       14.674490       37.432140
  H            4.261540       29.129310       37.148990
  H           -7.769760       21.499060       37.103590
  H           12.390730       18.077260       38.284370
  H           16.107770        1.859960       38.452720
  H           28.532640       13.204110       38.230510
  H            6.954690       14.509100       36.560890
  H            3.253380       31.207230       36.369140
  H           -9.117080       19.623880       36.302040
  H           10.923050       18.574810       39.456090
  H           -2.184580       32.503860       39.471920
  H           -7.612840       14.367040       39.480280
  H            8.390500       14.264360       35.270600
  H           21.373080        0.426340       35.228980
  H           26.778430       18.518700       35.223910
  H            9.837780       20.714470       35.129220
  H           -3.577510       30.492810       35.126440
  H           -5.394060       14.071530       35.225000
  H            9.284320       12.084530       39.655310
  H           22.718680        2.321060       39.456780
  H           24.479180       18.805110       39.636090
  H           10.792790       15.754270       35.035140
  H           18.710570        1.687940       35.028070
  H           26.788310       15.652360       35.155310
  H            8.366180       17.142650       39.655110
  H            0.426500       31.075080       39.608210
  H           -7.840850       17.267560       39.674320
  H            8.013180       18.337100       36.291480
  H           -0.499440       30.197200       36.250760
  H           -6.512220       16.985600       36.248770
  H           11.238410       14.377470       38.499420
  H           19.646820        2.726080       38.431320
  H           25.583690       16.001780       38.507880
  H            7.103340       20.525860       36.954350
  H           -1.898080       28.265220       36.892230
  H           -4.122990       16.727790       36.844440
  H           12.124160       12.182590       37.796130
  H           20.992120        4.686180       37.756600
  H           23.225490       16.213060       37.816540
  C            4.773710       23.706570       34.704300
  C           -3.566790       24.666270       34.443860
  C           -0.255580       17.067980       34.445450
  C           14.310340        9.115610       30.164880
  C           22.676270        8.115570       30.045610
  C           19.345610       15.744000       30.188780
  C            7.014140       24.581250       34.332550
  C           -5.481620       26.165890       34.503990
  C           -0.684820       14.695740       34.774290
  C           12.066450        8.201830       30.400340
  C           24.567260        6.585030       30.031170
  C           19.722490       18.147850       30.153230
  C            6.606650       22.082850       34.357540
  C           -3.136960       27.097360       34.304070
  C           -2.596850       16.291810       34.302080
  C           12.440330       10.702410       30.448730
  C           22.206460        5.698690       30.272210
  C           21.659360       16.541330       30.484170
  C            6.143170       23.488500       34.480000
  C           -4.093560       25.968000       34.428720
  C           -1.157770       15.994360       34.525390
  C           12.928790        9.307370       30.322280
  C           23.181690        6.806060       30.096980
  C           20.221210       16.839110       30.261750
  C            6.514500       25.877210       34.404730
  C           -6.332860       25.068540       34.599070
  C            0.680340       14.474790       34.926720
  C           12.588360        6.914280       30.331540
  C           25.436110        7.667860       29.934700
  C           18.355200       18.354200       29.988860
  C            4.265820       25.002780       34.725810
  C           -4.420430       23.567170       34.480890
  C            1.112190       16.840920       34.558950
  C           14.837530        7.827820       30.147660
  C           23.547440        9.200720       29.998820
  C           17.974370       15.951420       30.079160
  C            4.671300       27.503510       34.544410
  C           -6.777020       22.639700       34.572880
  C            3.035230       15.215280       34.836120
  C           14.471610        5.324750       30.277980
  C           25.927460       10.084370       29.992540
  C           16.018390       17.548180       29.944750
  C            5.137850       26.092920       34.572880
  C           -5.808610       23.766080       34.562830
  C            1.586130       15.539610       34.794400
  C           13.975670        6.723000       30.236960
  C           24.933940        8.979210       29.954310
  C           17.474700       17.260290       29.987570
  C            6.131140       16.840740       34.618180
  C            1.681290       29.301750       34.448140
  C           -6.808850       19.165910       34.373270
  C           12.981960       15.865910       30.276690
  C           17.466150        3.592050       30.427520
  C           26.005390       13.567950       30.206700
  C            9.927210       16.935720       32.321440
  C           18.160240        0.357180       32.346030
  C           28.357350       15.717060       32.322240
  C            9.116500       15.831870       32.450570
  C            0.969110       32.457680       32.411050
  C           -9.267010       16.973850       32.415630
  C           13.620590       17.685310       31.742400
  C           15.652610        3.201180       31.986820
  C           27.101310       12.145270       31.832900
  C            5.412420       15.148130       33.040360
  C            3.431770       29.571960       32.794350
  C           -8.052160       20.568050       32.841740
  C           12.303680       17.776150       32.188130
  C           16.242060        1.995370       32.355690
  C           27.824070       13.244050       32.295360
  C            6.716600       15.053490       32.561080
  C            2.842460       30.763550       32.379090
  C           -8.795250       19.458490       32.444500
  C            7.751380       15.878120       33.050120
  C            1.639780       31.235730       32.942790
  C           -8.539940       18.166050       32.950260
  C           11.300640       16.891540       31.738720
  C           17.480210        1.578250       31.825240
  C           27.634120       14.536280       31.763010
  C            9.962110       18.964600       33.858640
  C           -2.135140       31.534860       33.889910
  C           -6.966920       14.732730       33.891900
  C            9.068710       13.778370       30.940450
  C           21.238340        1.233540       30.821680
  C           26.009080       17.986730       30.908890
  C            9.452130       20.204370       34.251010
  C           -2.946570       30.453060       34.242740
  C           -5.641550       14.619670       34.320300
  C            9.582010       12.533260       30.566500
  C           22.029560        2.307780       30.406610
  C           24.668180       18.136730       30.547490
  C            9.597860       14.475890       32.040090
  C           20.435980        1.326320       31.972780
  C           26.377030       17.196720       32.012410
  C            9.437090       18.285360       32.745570
  C           -1.297370       31.473220       32.762290
  C           -7.296110       15.480830       32.747860
  C           10.644970       11.999480       31.285520
  C           21.999820        3.490850       31.136480
  C           23.692020       17.471200       31.280650
  C            8.396610       20.757530       33.535270
  C           -2.902600       29.298350       33.471260
  C           -4.642560       15.277650       33.610540
  C           11.669360       15.976460       30.728690
  C           18.041290        2.383790       30.811620
  C           26.738630       14.653910       30.679110
  C            7.429830       16.731480       34.125660
  C            1.105350       30.494170       34.016350
  C           -7.562990       18.068190       33.964670
  C           13.953940       16.706680       30.810530
  C           16.286400        4.001100       31.040110
  C           26.181610       12.322310       30.801860
  C            5.125420       16.065460       34.049000
  C            2.833670       28.841950       33.818420
  C           -7.044470       20.405500       33.787860
  C            8.380890       18.884380       32.041580
  C           -1.284310       30.287090       32.012310
  C           -6.253560       16.093970       32.034610
  C           10.657060       13.891090       32.750050
  C           20.450810        2.530930       32.694290
  C           25.358660       16.552690       32.732720
  C            7.850670       20.111540       32.428770
  C           -2.073560       29.195560       32.358780
  C           -4.931210       16.007970       32.459630
  C           11.193910       12.663730       32.377790
  C           21.218520        3.617760       32.283010
  C           24.020210       16.674020       32.373610
  C            4.830980       23.751060       39.182400
  C           -3.508070       24.679580       39.557540
  C           -0.278560       16.803970       29.930120
  C           14.294250        9.035700       34.856930
  C           22.658260        8.270680       35.110310
  C           19.376400       15.748730       34.986650
  C            7.048040       24.593710       39.709370
  C           -5.424230       26.174370       39.452600
  C           -0.535740       14.546530       39.302660
  C           12.080060        8.135120       35.298280
  C           24.529330        6.714580       35.084820
  C           19.712910       18.157130       34.954900
  C            6.677070       22.114470       39.253780
  C           -3.067970       27.102210       39.325260
  C           -2.496970       16.153030       39.384400
  C           12.466330       10.647640       35.265120
  C           22.164630        5.858720       35.347360
  C           21.678790       16.584890       35.299170
  C            6.201310       23.519260       39.391370
  C           -4.033250       25.979010       39.453600
  C           -1.052100       15.832730       39.529460
  C           12.930770        9.240580       35.126240
  C           23.148320        6.955710       35.164070
  C           20.235390       16.858100       35.067990
  C            6.433630       25.804470       29.857640
  C           -6.275480       25.077660       39.547580
  C            0.831940       14.317940       39.426820
  C           12.596880        6.843310       35.220320
  C           25.412950        7.784460       34.980680
  C           18.342060       18.339900       34.785540
  C            4.317360       25.043400       39.245220
  C           -4.360520       23.579260       39.602540
  C            1.095700       16.586610       30.004390
  C           14.820020        7.746830       34.826260
  C           23.544570        9.342240       35.057140
  C           18.001970       15.933210       34.870470
  C            4.689960       27.533600       39.575560
  C           -6.729760       22.656620       39.569580
  C            3.158800       15.071690       39.713750
  C           14.476670        5.242740       35.072380
  C           25.928060       10.200350       35.042010
  C           16.012610       17.503180       34.773100
  C            5.164240       26.120710       39.558130
  C           -5.751400       23.776170       39.592380
  C            1.702980       15.378700       39.725690
  C           13.973190        6.642810       35.017520
  C           24.928070        9.101340       35.006170
  C           17.476750       17.233070       34.781160
  C            6.265530       16.715880       39.666260
  C            1.817600       29.446160       39.504770
  C           -7.015970       19.245770       39.545590
  C           12.918690       16.052690       35.019110
  C           17.356430        3.351780       35.103140
  C           26.115000       13.620250       35.234460
  C           10.037530       16.933630       37.361150
  C           18.204690        0.395530       37.361550
  C           28.395130       15.828960       37.343930
  C            9.227500       15.826350       37.422880
  C           19.572150        0.268240       37.369320
  C           -9.271850       17.065610       37.376090
  C           13.792110       17.389660       36.842350
  C           15.870730        3.407600       37.016080
  C           27.131660       12.245350       36.952060
  C            5.492700       15.219620       37.924460
  C            3.418440       29.552630       37.689400
  C           -7.777830       20.564220       37.658340
  C           12.507610       17.511100       37.367920
  C           16.463470        2.243330       37.503520
  C           27.863280       13.347500       37.391120
  C            6.791550       15.133890       37.430550
  C            2.833730       30.739520       37.251040
  C           -8.549900       19.492360       37.216790
  C            7.852370       15.862450       38.002320
  C            1.705840       31.289660       37.890210
  C           -8.546550       18.261910       37.899870
  C           11.405460       16.877410       36.764690
  C           17.525070        1.615500       36.824330
  C           27.706050       14.619010       36.806900
  C           10.123390       19.007680       38.860720
  C           -2.148400       31.606700       38.859620
  C           -6.861520       14.837680       38.849770
  C            9.162300       13.795790       35.876820
  C           21.327070        1.324460       35.839580
  C           26.012920       18.060230       35.844460
  C            9.616650       20.254470       39.243530
  C           -2.953240       30.524020       39.224610
  C           -5.514170       14.676510       39.185880
  C            9.644860       12.543770       35.484750
  C           22.104330        2.421860       35.460160
  C           24.676790       18.200040       35.456970
  C            9.719760       14.481970       36.970580
  C           20.437370        1.407040       36.924780
  C           26.372910       17.267330       36.948980
  C            9.554550       18.285290       37.796730
  C           -1.247660       31.510980       37.784880
  C           -7.246680       15.653670       37.771340
  C           10.717150       11.985210       36.168930
  C           21.968920        3.621380       36.148910
  C           23.688160       17.525280       36.163850
  C            8.522390       20.782450       38.566420
  C           -2.844460       29.329240       38.522810
  C           -4.544090       15.355310       38.457600
  C           11.638760       16.187130       35.558720
  C           17.928870        2.179840       35.598850
  C           26.860990       14.707960       35.682380
  C            7.558630       16.623540       39.151530
  C            1.248150       30.636490       39.052370
  C           -7.800760       18.184140       39.093390
  C           13.988650       16.640760       35.685460
  C           16.334520        3.960590       35.824150
  C           26.235130       12.404170       35.899720
  C            5.237130       16.020400       39.035650
  C            2.888920       28.901960       38.800590
  C           -6.999810       20.423530       38.803470
  C            8.469700       18.869050       37.119520
  C           -1.184980       30.292040       37.086870
  C           -6.235580       16.332020       37.069040
  C           10.786700       13.870840       37.652070
  C           20.338510        2.636120       37.600000
  C           25.339540       16.619930       37.650270
  C            7.948600       20.104470       37.491580
  C           -1.968730       29.199000       37.445980
  C           -4.890130       16.196630       37.402770
  C           11.293330       12.633650       37.259200
  C           21.087780        3.745450       37.220870
  C           24.004950       16.734620       37.266370
  O            7.915960       22.025900       33.915190
  O           -3.756200       28.222760       33.794530
  O           -3.311690       15.135340       34.049900
  O           11.144330       10.732550       30.925320
  O           22.832110        4.555170       30.732470
  O           22.342040       17.658960       30.923530
  O            5.931000       21.095220       34.590110
  O           -1.952380       27.047640       34.585730
  O           -3.088880       17.407130       34.319800
  O           13.091480       11.701150       30.193750
  O           21.007360        5.782530       30.067210
  O           22.179520       15.451020       30.323080
  O            3.337900       27.580680       34.186000
  O           -6.190580       21.474230       34.116900
  O            3.798130       16.300020       34.445750
  O           15.778750        5.274060       30.723810
  O           25.342030       11.266860       30.398550
  O           15.297390       16.486980       30.459280
  O            5.375170       28.469940       34.776880
  O           -7.944770       22.725190       34.911980
  O            3.502420       14.132130       35.140970
  O           13.813610        4.339870       29.993440
  O           27.204030       10.041110       39.689650
  O           15.610560       18.661210       39.497800
  O            8.028320       22.048010       38.957390
  O           -3.687510       28.257500       38.885710
  O           -3.183640       15.128760       38.761460
  O           11.183610       10.710300       35.777760
  O           22.791450        4.700740       35.772580
  O           22.340680       17.700870       35.775370
  O            5.961920       21.133940       39.364490
  O           -1.874330       27.026680       39.561520
  O           -3.019050       17.191130       39.753670
  O           13.129110       11.631990       34.982970
  O           20.963190        5.956980       35.171540
  O           22.218150       15.507590       35.112000
  O            3.374180       27.627730       39.160100
  O           -6.134620       21.474830       39.170750
  O            3.917470       16.207700       39.491130
  O           15.824410        5.199340       35.379620
  O           25.365100       11.353980       35.550960
  O           15.305640       16.408700       35.237540
  O            5.275810       28.419090       29.935300
  O           -8.006690       22.688270       29.872080
  O            3.537560       13.878100       29.876360
  O           13.789390        4.251050       34.908400
  O           27.095890       10.102020       34.709880
  O           15.494900       18.558490       34.453110
  H            4.216870       22.919610       44.784820
  H           -2.395560       24.618540       44.355320
  H           -0.557370       18.142420       44.218820
  H           15.042940       10.068710       40.046770
  H           21.690620        8.335400       40.035820
  H           19.855730       14.819560       40.209450
  H            8.163980       24.485750       44.111300
  H           -5.789070       27.253580       44.447710
  H           -1.296940       13.947950       44.792580
  H           11.090500        8.437180       40.478660
  H           25.043370        5.646810       40.021290
  H           20.497230       19.069350       40.159380
  H            7.258330       26.818470       44.256850
  H           -7.318310       25.272250       44.631000
  H            1.166010       13.555810       45.070160
  H           12.035340        6.117750       40.343060
  H           26.605050        7.603300       39.837000
  H           18.034600       19.433870       39.853530
  H            3.292890       25.255610       44.812000
  H           -3.931770       22.633280       44.405400
  H            1.911470       17.736720       44.410870
  H           16.001820        7.746310       40.026460
  H           23.257210       10.295660       39.962350
  H           17.377360       15.188570       40.026070
  H            6.054580       17.306960       40.553730
  H            1.443100       28.948530       40.395630
  H           -6.440270       19.164580       40.464630
  H           13.178150       15.589610       44.046880
  H           17.775520        3.857080       44.115880
  H           25.541350       13.783200       44.335410
  H           14.472720       18.423570       42.106170
  H           14.816500        3.598470       42.410220
  H           27.333330       11.247750       42.248240
  H            4.719990       14.606730       42.567920
  H            4.423360       29.287360       42.259590
  H           -8.149720       21.616890       42.349390
  H           12.168570       18.606980       42.889200
  H           15.828320        1.475050       43.060640
  H           28.614410       13.157860       43.064530
  H            7.001460       14.425700       41.717190
  H            3.413600       31.384040       41.529120
  H           -9.467350       19.690590       41.648590
  H           10.823100       18.574430       44.425900
  H           -2.024340       32.484240       44.496090
  H           -7.660240       14.374170       44.461750
  H            8.392040       14.311330       40.276260
  H           21.288260        0.422370       40.151310
  H           26.864200       18.515410       40.234840
  H           10.039640       20.785290       40.092370
  H           -3.623970       30.592230       40.077040
  H           -5.223610       14.059250       40.031540
  H            9.317190       12.109910       44.579330
  H           22.865290        2.439090       44.562600
  H           24.502380       18.866760       44.539800
  H           11.007810       15.412730       40.245490
  H           19.040970        2.140420       40.273970
  H           26.710800       15.692800       40.150810
  H            8.303600       17.402420       44.538810
  H            0.310320       30.936240       44.475780
  H           -7.292490       17.189160       44.394640
  H            8.048960       18.455370       41.136750
  H           -0.547010       30.290350       41.100210
  H           -6.386430       16.747960       41.098220
  H           11.174230       14.487080       43.558140
  H           19.929420        2.707770       43.540620
  H           25.711350       16.009300       43.539230
  H            7.116640       20.632460       41.833370
  H           -1.954330       28.360170       41.724750
  H           -4.052260       16.589150       41.861250
  H           12.116420       12.310830       42.887410
  H           21.295470        4.626420       42.801290
  H           23.341330       16.233190       42.893980
  H            4.282870       22.980970       48.904200
  H           -2.335760       24.634550       49.525650
  H           -0.612890       17.864510       40.072060
  H           15.018740        9.984980       44.663450
  H           21.674110        8.504730       45.103610
  H           19.899320       14.829780       45.009220
  H            8.106750       24.413500       39.876530
  H           -5.736390       27.257020       49.327530
  H           -1.114850       13.815130       48.982550
  H           11.115960        8.371740       45.456350
  H           24.990220        5.770530       45.071250
  H           20.473770       19.089300       44.964420
  H            7.159270       26.728520       40.067080
  H           -7.264170       25.276310       49.507730
  H            1.347730       13.407210       49.220500
  H           12.048290        6.051260       45.310290
  H           26.578700        7.702130       44.877310
  H           18.006110       19.413460       44.652000
  H            3.356780       25.304310       49.003460
  H           -3.867720       22.646850       49.593650
  H            1.864750       17.481170       40.195320
  H           15.975390        7.665970       44.622440
  H           23.269380       10.442040       45.022860
  H           17.420530       15.157460       44.816480
  H            5.987310       17.592510       45.393430
  H            1.340670       28.815210       45.226560
  H           -5.953740       19.143840       45.096740
  H           13.436210       15.293880       49.426290
  H           18.108190        4.364710       49.571350
  H           25.493860       13.832350       49.290490
  H           14.724780       17.938120       47.301880
  H           15.158040        3.959060       47.529680
  H           27.332690       11.361990       47.405530
  H            4.783690       14.751880       47.388100
  H            4.353460       29.206700       47.104960
  H           -7.677840       21.576450       47.059560
  H           12.482650       18.154660       48.240330
  H           16.199690        1.937350       48.408690
  H           28.624560       13.281500       48.186470
  H            7.046610       14.586490       46.516860
  H            3.345300       31.284630       46.325100
  H           -9.025170       19.701270       46.258000
  H           11.014970       18.652200       49.412050
  H           -2.092660       32.581250       49.427880
  H           -7.520920       14.444430       49.436240
  H            8.482420       14.341750       45.226560
  H           21.465000        0.503730       45.184950
  H           26.870340       18.596090       45.179870
  H            9.929700       20.791860       45.085190
  H           -3.485590       30.570200       45.082400
  H           -5.302140       14.148920       45.180970
  H            9.376240       12.161920       49.611270
  H           22.810600        2.398450       49.412750
  H           24.571100       18.882500       49.592060
  H           10.884700       15.831660       44.991110
  H           18.802490        1.765330       44.984040
  H           26.880230       15.729750       45.111270
  H            8.458090       17.220040       49.611070
  H            0.518410       31.152470       49.564180
  H           -7.748930       17.344960       49.630290
  H            8.105100       18.414490       46.247450
  H           -0.407520       30.274600       46.206730
  H           -6.420300       17.062990       46.204740
  H           11.330330       14.454860       48.455380
  H           19.738740        2.803470       48.387280
  H           25.675610       16.079180       48.463850
  H            7.195260       20.603260       46.910320
  H           -1.806160       28.342610       46.848190
  H           -4.031070       16.805180       46.800400
  H           12.216080       12.259980       47.752090
  H           21.084030        4.763580       47.712570
  H           23.317410       16.290450       47.772500
  C            4.865630       23.783960       44.660270
  C           -3.474880       24.743660       44.399820
  C           -0.163660       17.145370       44.401410
  C           14.402250        9.193000       40.120850
  C           22.768190        8.192960       40.001570
  C           19.437530       15.821390       40.144740
  C            7.106050       24.658650       44.288510
  C           -5.389700       26.243280       44.459950
  C           -0.592900       14.773130       44.730260
  C           12.158370        8.279220       40.356300
  C           24.659180        6.662420       39.987140
  C           19.814410       18.225250       40.109200
  C            6.698570       22.160250       44.313500
  C           -3.045050       27.174750       44.260040
  C           -2.504930       16.369200       44.258050
  C           12.532250       10.779800       40.404690
  C           22.298380        5.776080       40.228170
  C           21.751280       16.618720       40.440130
  C            6.235080       23.565890       44.435960
  C           -4.001640       26.045390       44.384690
  C           -1.065850       16.071750       44.481360
  C           13.020710        9.384760       40.278250
  C           23.273610        6.883450       40.052950
  C           20.313130       16.916500       40.217720
  C            6.606420       25.954610       44.360690
  C           -6.240950       25.145930       44.555030
  C            0.772260       14.552180       44.882680
  C           12.680270        6.991670       40.287510
  C           25.528030        7.745250       39.890660
  C           18.447110       18.431590       39.944820
  C            4.357740       25.080180       44.681770
  C           -4.328510       23.644560       44.436860
  C            1.204110       16.918310       44.514910
  C           14.929450        7.905210       40.103620
  C           23.639350        9.278110       39.954780
  C           18.066290       16.028810       40.035130
  C            4.763220       27.580910       44.500380
  C           -6.685100       22.717090       44.528850
  C            3.127150       15.292670       44.792090
  C           14.563530        5.402150       40.233950
  C           26.019380       10.161760       39.948510
  C           16.110300       17.625570       39.900720
  C            5.229770       26.170310       44.528850
  C           -5.716690       23.843480       44.518790
  C            1.678050       15.617010       44.750370
  C           14.067590        6.800390       40.192930
  C           25.025860        9.056600       39.910280
  C           17.566620       17.337680       39.943530
  C            6.223050       16.918130       44.574150
  C            1.773210       29.379140       44.404100
  C           -6.716930       19.243300       44.329230
  C           13.073880       15.943300       40.232650
  C           17.558060        3.669450       40.383480
  C           26.097300       13.645340       40.162660
  C           10.019130       17.013110       42.277410
  C           18.252150        0.434580       42.302000
  C           28.449270       15.794450       42.278200
  C            9.208420       15.909260       42.406540
  C            1.061030       32.535070       42.367010
  C           -9.175090       17.051240       42.371590
  C           13.712510       17.762700       41.698370
  C           15.744520        3.278570       41.942790
  C           27.193230       12.222660       41.788870
  C            5.504340       15.225520       42.996330
  C            3.523690       29.649360       42.750320
  C           -7.960240       20.645440       42.797710
  C           12.395600       17.853540       42.144100
  C           16.333980        2.072760       42.311660
  C           27.915990       13.321440       42.251320
  C            6.808520       15.130880       42.517050
  C            2.934370       30.840940       42.335050
  C           -8.703330       19.535880       42.400460
  C            7.843300       15.955510       43.006080
  C            1.731700       31.313120       42.898760
  C           -8.448020       18.243440       42.906230
  C           11.392560       16.968930       41.694690
  C           17.572130        1.655640       41.781200
  C           27.726040       14.613670       41.718980
  C           10.054030       19.041990       43.814610
  C           -2.043220       31.612250       43.845870
  C           -6.875000       14.810120       43.847860
  C            9.160620       13.855760       40.896420
  C           21.330260        1.310940       40.777640
  C           26.101000       18.064120       40.864860
  C            9.544050       20.281770       44.206970
  C           -2.854660       30.530450       44.198710
  C           -5.549640       14.697060       44.276270
  C            9.673930       12.610650       40.522470
  C           22.121480        2.385170       40.362580
  C           24.760100       18.214120       40.503450
  C            9.689780       14.553280       41.996050
  C           20.527900        1.403710       41.928750
  C           26.468950       17.274110       41.968370
  C            9.529000       18.362750       42.701530
  C           -1.205450       31.550620       42.718260
  C           -7.204190       15.558220       42.703820
  C           10.736890       12.076870       41.241490
  C           22.091740        3.568240       41.092450
  C           23.783930       17.548590       41.236610
  C            8.488520       20.834920       43.491240
  C           -2.810680       29.375740       43.427220
  C           -4.550640       15.355040       43.566510
  C           11.761280       16.053850       40.684650
  C           18.133210        2.461180       40.767590
  C           26.830550       14.731300       40.635070
  C            7.521750       16.808880       44.081630
  C            1.197270       30.571570       43.972310
  C           -7.471080       18.145580       43.920640
  C           14.045860       16.784070       40.766490
  C           16.378320        4.078500       40.996070
  C           26.273520       12.399700       40.757830
  C            5.217340       16.142850       44.004970
  C            2.925590       28.919340       43.774390
  C           -6.952550       20.482890       43.743820
  C            8.472810       18.961780       41.997550
  C           -1.192390       30.364480       41.968270
  C           -6.161640       16.171360       41.990580
  C           10.748980       13.968480       42.706010
  C           20.542730        2.608320       42.650260
  C           25.450580       16.630080       42.688690
  C            7.942590       20.188940       42.384730
  C           -1.981640       29.272950       42.314740
  C           -4.839290       16.085360       42.415600
  C           11.285830       12.741120       42.333760
  C           21.310440        3.695150       42.238980
  C           24.112130       16.751410       42.329580
  C            4.922900       23.828450       49.138360
  C           -3.416150       24.756970       49.513500
  C           -0.186640       16.881360       39.886080
  C           14.386170        9.113090       44.812890
  C           22.750180        8.348070       45.066270
  C           19.468320       15.826130       44.942620
  C            7.139960       24.671100       49.665330
  C           -5.332310       26.251760       49.408570
  C           -0.443820       14.623920       49.258630
  C           12.171980        8.212510       45.254240
  C           24.621250        6.791980       45.040790
  C           19.804830       18.234520       44.910860
  C            6.768980       22.191860       49.209750
  C           -2.976050       27.179610       49.281230
  C           -2.405050       16.230420       49.340370
  C           12.558250       10.725030       45.221090
  C           22.256550        5.936110       45.303320
  C           21.770700       16.662280       45.255140
  C            6.293220       23.596650       49.347340
  C           -3.941330       26.056400       49.409560
  C           -0.960190       15.910120       49.485430
  C           13.022690        9.317970       45.082200
  C           23.240240        7.033100       45.120030
  C           20.327310       16.935490       45.023960
  C            6.525540       25.881860       39.813610
  C           -6.183560       25.155060       49.503550
  C            0.923860       14.395340       49.382780
  C           12.688790        6.920700       45.176290
  C           25.504870        7.861850       44.936650
  C           18.433980       18.417300       44.741510
  C            4.409280       25.120790       49.201180
  C           -4.268600       23.656650       49.558500
  C            1.187620       16.664000       39.960360
  C           14.911940        7.824220       44.782230
  C           23.636490        9.419640       45.013110
  C           18.093890       16.010600       44.826430
  C            4.781880       27.610990       49.531520
  C           -6.637840       22.734010       49.525550
  C            3.250720       15.149080       49.669710
  C           14.568590        5.320130       45.028340
  C           26.019980       10.277740       44.997970
  C           16.104530       17.580570       44.729060
  C            5.256160       26.198100       49.514100
  C           -5.659490       23.853560       49.548350
  C            1.794900       15.456100       49.681660
  C           14.065110        6.720200       44.973480
  C           25.019990        9.178730       44.962130
  C           17.568660       17.310470       44.737130
  C            6.357450       16.793270       49.622220
  C            1.909520       29.523550       49.460740
  C           -6.924060       19.323160       49.501560
  C           13.010610       16.130080       44.975080
  C           17.448350        3.429170       45.059100
  C           26.206920       13.697640       45.190420
  C           10.129440       17.011020       47.317120
  C           18.296610        0.472920       47.317520
  C           28.487050       15.906350       47.299890
  C            9.319410       15.903740       47.378840
  C           19.664060        0.345630       47.325280
  C           -9.179930       17.143000       47.332050
  C           13.884030       17.467050       46.798310
  C           15.962640        3.484990       46.972040
  C           27.223580       12.322740       46.908030
  C            5.584620       15.297010       47.880430
  C            3.510360       29.630020       47.645370
  C           -7.685910       20.641610       47.614300
  C           12.599530       17.588490       47.323890
  C           16.555390        2.320720       47.459490
  C           27.955200       13.424890       47.347080
  C            6.883470       15.211290       47.386510
  C            2.925650       30.816910       47.207000
  C           -8.457990       19.569750       47.172760
  C            7.944290       15.939840       47.958280
  C            1.797760       31.367050       47.846180
  C           -8.454640       18.339300       47.855830
  C           11.497380       16.954800       46.720660
  C           17.616990        1.692890       46.780290
  C           27.797970       14.696400       46.762870
  C           10.215310       19.085070       48.816680
  C           -2.056490       31.684090       48.815590
  C           -6.769600       14.915070       48.805730
  C            9.254220       13.873180       45.832780
  C           21.418990        1.401850       45.795550
  C           26.104830       18.137620       45.800430
  C            9.708570       20.331860       49.199490
  C           -2.861320       30.601410       49.180580
  C           -5.422250       14.753910       49.141850
  C            9.736780       12.621160       45.440720
  C           22.196250        2.499250       45.416130
  C           24.768710       18.277440       45.412940
  C            9.811680       14.559370       46.926540
  C           20.529290        1.484440       46.880750
  C           26.464830       17.344730       46.904940
  C            9.646470       18.362680       47.752690
  C           -1.155740       31.588370       47.740840
  C           -7.154760       15.731060       47.727300
  C           10.809070       12.062600       46.124890
  C           22.060840        3.698770       46.104880
  C           23.780070       17.602670       46.119810
  C            8.614310       20.859840       48.522390
  C           -2.752540       29.406630       48.478780
  C           -4.452170       15.432700       48.413570
  C           11.730680       16.264520       45.514690
  C           18.020780        2.257240       45.554810
  C           26.952910       14.785350       45.638340
  C            7.650550       16.700930       49.107500
  C            1.340060       30.713880       49.008340
  C           -7.708840       18.261530       49.049360
  C           14.080570       16.718150       45.641430
  C           16.426440        4.037990       45.780120
  C           26.327040       12.481560       45.855680
  C            5.329050       16.097790       48.991610
  C            2.980840       28.979350       48.756550
  C           -6.907900       20.500920       48.759440
  C            8.561620       18.946440       47.075490
  C           -1.093060       30.369430       47.042830
  C           -6.143670       16.409410       47.025010
  C           10.878610       13.948240       47.608030
  C           20.430430        2.713510       47.555960
  C           25.431460       16.697320       47.606240
  C            8.040520       20.181860       47.447540
  C           -1.876820       29.276390       47.401940
  C           -4.798210       16.274020       47.358730
  C           11.385250       12.711040       47.215170
  C           21.179700        3.822840       47.176840
  C           24.096860       16.812010       47.222340
  O            8.007880       22.103290       43.871160
  O           -3.664280       28.300150       43.750490
  O           -3.219780       15.212730       44.005860
  O           11.236250       10.809940       40.881280
  O           22.924030        4.632570       40.688440
  O           22.433960       17.736350       40.879490
  O            6.022920       21.172610       44.546070
  O           -1.860460       27.125030       44.541690
  O           -2.996960       17.484520       44.275770
  O           13.183400       11.778550       40.149720
  O           21.099280        5.859930       40.023180
  O           22.271430       15.528410       40.279050
  O            3.429820       27.658070       44.141960
  O           -6.098660       21.551620       44.072870
  O            3.890050       16.377410       44.401710
  O           15.870660        5.351450       40.679770
  O           25.433950       11.344250       40.354510
  O           15.389310       16.564370       40.415240
  O            5.467090       28.547330       44.732850
  O           -7.852860       22.802580       44.867950
  O            3.594330       14.209530       45.096940
  O           13.905530        4.417260       39.949400
  O           27.295950       10.118500       49.645620
  O           15.702470       18.738600       49.453770
  O            8.120240       22.125400       48.913360
  O           -3.595590       28.334890       48.841670
  O           -3.091730       15.206160       48.717420
  O           11.275530       10.787700       45.733720
  O           22.883370        4.778140       45.728540
  O           22.432600       17.778260       45.731330
  O            6.053840       21.211340       49.320460
  O           -1.782410       27.104070       49.517480
  O           -2.927140       17.268520       49.709640
  O           13.221030       11.709380       44.938940
  O           21.055110        6.034370       45.127500
  O           22.310070       15.584980       45.067970
  O            3.466100       27.705120       49.116060
  O           -6.042710       21.552220       49.126710
  O            4.009380       16.285090       49.447100
  O           15.916330        5.276730       45.335580
  O           25.457020       11.431380       45.506920
  O           15.397560       16.486090       45.193510
  O            5.367730       28.496480       39.891260
  O           -7.914770       22.765660       39.828040
  O            3.629480       13.955500       39.832320
  O           13.881310        4.328440       44.864370
  O           27.187810       10.179410       44.665840
  O           15.586810       18.635880       44.409080
  H            4.308790       22.997000       54.740780
  H           -2.303640       24.695930       54.311280
  H           -0.465450       18.219810       54.174790
  H           15.134860       10.146100       50.002740
  H           21.782540        8.412800       49.991790
  H           19.947650       14.896950       50.165420
  H            8.255900       24.563140       54.067260
  H           -5.697150       27.330970       54.403670
  H           -1.205020       14.025340       54.748550
  H           11.182420        8.514570       50.434630
  H           25.135290        5.724200       49.977250
  H           20.589150       19.146750       50.115340
  H            7.350250       26.895860       54.212820
  H           -7.226390       25.349650       54.586960
  H            1.257930       13.633210       55.026120
  H           12.127260        6.195140       50.299030
  H           26.696970        7.680690       49.792970
  H           18.126520       19.511260       49.809490
  H            3.384810       25.333000       54.767960
  H           -3.839850       22.710670       54.361360
  H            2.003390       17.814110       54.366840
  H           16.093740        7.823700       49.982430
  H           23.349130       10.373060       49.918310
  H           17.469280       15.265960       49.982030
  H            6.146500       17.384350       50.509700
  H            1.535020       29.025920       50.351600
  H           -6.348350       19.241970       50.420590
  H           13.270070       15.667010       54.002850
  H           17.867440        3.934470       54.071840
  H           25.633270       13.860590       54.291370
  H           14.564640       18.500960       52.062130
  H           14.908420        3.675870       52.366190
  H           27.425240       11.325140       52.204200
  H            4.811910       14.684120       52.523890
  H            4.515280       29.364750       52.215550
  H           -8.057800       21.694280       52.305350
  H           12.260480       18.684370       52.845170
  H           15.920240        1.552440       53.016610
  H           28.706320       13.235250       53.020490
  H            7.093380       14.503090       51.673150
  H            3.505520       31.461430       51.485080
  H           -9.375430       19.767980       51.604550
  H           10.915010       18.651820       54.381870
  H           -1.932430       32.561630       54.452060
  H           -7.568320       14.451560       54.417710
  H            8.483960       14.388720       50.232220
  H           21.380180        0.499760       50.107280
  H           26.956120       18.592810       50.190810
  H           10.131550       20.862680       50.048340
  H           -3.532050       30.669620       50.033000
  H           -5.131690       14.136640       49.987510
  H            9.409110       12.187300       54.535290
  H           22.957210        2.516490       54.518570
  H           24.594300       18.944160       54.495770
  H           11.099720       15.490120       50.201460
  H           19.132890        2.217810       50.229930
  H           26.802720       15.770190       50.106780
  H            8.395520       17.479810       54.494770
  H            0.402240       31.013640       54.431750
  H           -7.200570       17.266550       54.350610
  H            8.140870       18.532760       51.092720
  H           -0.455100       30.367750       51.056180
  H           -6.294510       16.825350       51.054190
  H           11.266140       14.564470       53.514110
  H           20.021340        2.785160       53.496590
  H           25.803270       16.086690       53.495190
  H            7.208550       20.709850       51.789340
  H           -1.862410       28.437560       51.680720
  H           -3.960340       16.666540       51.817210
  H           12.208340       12.388220       52.843370
  H           21.387390        4.703810       52.757260
  H           23.433250       16.310580       52.849950
  H            4.374790       23.058360       58.860160
  H           -2.243840       24.711940       59.481610
  H           -0.520970       17.941910       50.028030
  H           15.110660       10.062380       54.619420
  H           21.766030        8.582120       55.059570
  H           19.991240       14.907180       54.965190
  H            8.198670       24.490890       49.832490
  H           -5.644470       27.334410       59.283490
  H           -1.022940       13.892520       58.938520
  H           11.207880        8.449130       55.412310
  H           25.082140        5.847920       55.027220
  H           20.565690       19.166690       54.920390
  H            7.251190       26.805910       50.023050
  H           -7.172260       25.353700       59.463690
  H            1.439650       13.484600       59.176460
  H           12.140200        6.128650       55.266260
  H           26.670620        7.779520       54.833270
  H           18.098020       19.490850       54.607970
  H            3.448700       25.381700       58.959420
  H           -3.775800       22.724240       59.549610
  H            1.956670       17.558560       50.151280
  H           16.067310        7.743360       54.578400
  H           23.361300       10.519430       54.978830
  H           17.512450       15.234850       54.772440
  H            6.079230       17.669900       55.349390
  H            1.432590       28.892600       55.182530
  H           -5.861830       19.221230       55.052700
  H           13.528130       15.371270       59.382250
  H           18.200110        4.442100       59.527310
  H           25.585780       13.909750       59.246450
  H           14.816700       18.015520       57.257850
  H           15.249950        4.036450       57.485640
  H           27.424610       11.439380       57.361490
  H            4.875610       14.829270       57.344070
  H            4.445370       29.284090       57.060920
  H           -7.585920       21.653840       57.015520
  H           12.574560       18.232050       58.196300
  H           16.291610        2.014750       58.364650
  H           28.716480       13.358890       58.142440
  H            7.138530       14.663880       56.472820
  H            3.437210       31.362020       56.281070
  H           -8.933250       19.778660       56.213970
  H           11.106890       18.729590       59.368020
  H           -2.000740       32.658650       59.383850
  H           -7.429000       14.521830       59.392210
  H            8.574340       14.419140       55.182530
  H           21.556920        0.581120       55.140910
  H           26.962260       18.673480       55.135840
  H           10.021610       20.869250       55.041150
  H           -3.393670       30.647590       55.038370
  H           -5.210220       14.226310       55.136930
  H            9.468160       12.239310       59.567240
  H           22.902520        2.475840       59.368710
  H           24.663010       18.959890       59.548020
  H           10.976620       15.909050       54.947070
  H           18.894410        1.842720       54.940000
  H           26.972140       15.807140       55.067240
  H            8.550010       17.297430       59.567040
  H            0.610330       31.229860       59.520140
  H           -7.657010       17.422350       59.586250
  H            8.197020       18.491890       56.203410
  H           -0.315610       30.351990       56.162690
  H           -6.328390       17.140380       56.160700
  H           11.422250       14.532250       58.411350
  H           19.830650        2.880870       58.343250
  H           25.767530       16.156570       58.419810
  H            7.287170       20.680650       56.866280
  H           -1.714240       28.420000       56.804160
  H           -3.939150       16.882580       56.756370
  H           12.308000       12.337380       57.708060
  H           21.175950        4.840970       57.668530
  H           23.409320       16.367850       57.728470
  C            4.957540       23.861360       54.616230
  C           -3.382960       24.821050       54.355790
  C           -0.071740       17.222760       54.357380
  C           14.494170        9.270390       50.076810
  C           22.860110        8.270350       49.957540
  C           19.529450       15.898780       50.100710
  C            7.197970       24.736040       54.244480
  C           -5.297780       26.320670       54.415920
  C           -0.500980       14.850520       54.686220
  C           12.250290        8.356610       50.312270
  C           24.751100        6.739810       49.943100
  C           19.906330       18.302640       50.065160
  C            6.790480       22.237640       54.269470
  C           -2.953130       27.252140       54.216000
  C           -2.413010       16.446600       54.214010
  C           12.624160       10.857190       50.360660
  C           22.390290        5.853470       50.184140
  C           21.843190       16.696120       50.396100
  C            6.327000       23.643280       54.391930
  C           -3.909720       26.122780       54.340650
  C           -0.973930       16.149150       54.437320
  C           13.112620        9.462160       50.234210
  C           23.365530        6.960840       50.008910
  C           20.405050       16.993900       50.173680
  C            6.698340       26.032000       54.316660
  C           -6.149030       25.223320       54.511000
  C            0.864180       14.629570       54.838650
  C           12.772190        7.069060       50.243470
  C           25.619950        7.822640       49.846630
  C           18.539030       18.508980       49.900790
  C            4.449660       25.157570       54.637740
  C           -4.236590       23.721950       54.392820
  C            1.296030       16.995700       54.470880
  C           15.021370        7.982600       50.059590
  C           23.731270        9.355510       49.910750
  C           18.158210       16.106200       49.991090
  C            4.855140       27.658300       54.456340
  C           -6.593180       22.794480       54.484810
  C            3.219070       15.370070       54.748050
  C           14.655450        5.479540       50.189910
  C           26.111300       10.239150       49.904470
  C           16.202220       17.702970       49.856680
  C            5.321690       26.247700       54.484810
  C           -5.624780       23.920870       54.474760
  C            1.769960       15.694400       54.706330
  C           14.159510        6.877790       50.148890
  C           25.117780        9.133990       49.866240
  C           17.658530       17.415070       49.899500
  C            6.314970       16.995520       54.530110
  C            1.865130       29.456540       54.360070
  C           -6.625010       19.320690       54.285200
  C           13.165800       16.020690       50.188620
  C           17.649980        3.746840       50.339450
  C           26.189220       13.722730       50.118630
  C           10.111040       17.090510       52.233370
  C           18.344070        0.511970       52.257960
  C           28.541180       15.871840       52.234170
  C            9.300340       15.986650       52.362500
  C            1.152950       32.612460       52.322980
  C           -9.083170       17.128640       52.327560
  C           13.804420       17.840100       51.654330
  C           15.836440        3.355960       51.898750
  C           27.285140       12.300050       51.744830
  C            5.596260       15.302910       52.952290
  C            3.615610       29.726750       52.706280
  C           -7.868320       20.722830       52.753670
  C           12.487520       17.930930       52.100060
  C           16.425900        2.150150       52.267620
  C           28.007910       13.398830       52.207290
  C            6.900430       15.208270       52.473010
  C            3.026290       30.918330       52.291020
  C           -8.611420       19.613270       52.356430
  C            7.935220       16.032900       52.962050
  C            1.823620       31.390510       52.854720
  C           -8.356100       18.320830       52.862190
  C           11.484470       17.046320       51.650650
  C           17.664050        1.733040       51.737170
  C           27.817960       14.691060       51.674940
  C           10.145950       19.119380       53.770570
  C           -1.951300       31.689650       53.801840
  C           -6.783090       14.887510       53.803830
  C            9.252540       13.933160       50.852380
  C           21.422170        1.388330       50.733610
  C           26.192910       18.141510       50.820820
  C            9.635970       20.359160       54.162940
  C           -2.762740       30.607840       54.154670
  C           -5.457720       14.774450       54.232230
  C            9.765850       12.688040       50.478430
  C           22.213400        2.462560       50.318540
  C           24.852010       18.291520       50.459420
  C            9.781690       14.630670       51.952020
  C           20.619820        1.481100       51.884710
  C           26.560870       17.351500       51.924340
  C            9.620920       18.440140       52.657500
  C           -1.113530       31.628010       52.674220
  C           -7.112270       15.635610       52.659790
  C           10.828800       12.154260       51.197450
  C           22.183660        3.645630       51.048410
  C           23.875850       17.625980       51.192580
  C            8.580440       20.912310       53.447200
  C           -2.718760       29.453130       53.383190
  C           -4.458720       15.432430       53.522470
  C           11.853200       16.131240       50.640620
  C           18.225120        2.538570       50.723550
  C           26.922470       14.808690       50.591040
  C            7.613660       16.886270       54.037590
  C            1.289190       30.648960       53.928280
  C           -7.379160       18.222970       53.876600
  C           14.137780       16.861460       50.722460
  C           16.470240        4.155890       50.952040
  C           26.365440       12.477090       50.713790
  C            5.309250       16.220240       53.960930
  C            3.017510       28.996740       53.730350
  C           -6.860630       20.560280       53.699790
  C            8.564730       19.039170       51.953510
  C           -1.100470       30.441870       51.924240
  C           -6.069720       16.248750       51.946540
  C           10.840900       14.045880       52.661980
  C           20.634650        2.685710       52.606220
  C           25.542500       16.707470       52.644650
  C            8.034510       20.266330       52.340700
  C           -1.889720       29.350350       52.270710
  C           -4.747370       16.162750       52.371560
  C           11.377740       12.818510       52.289720
  C           21.402360        3.772540       52.194940
  C           24.204050       16.828800       52.285540
  C            5.014820       23.905840       59.094330
  C           -3.324230       24.834360       59.469470
  C           -0.094720       16.958760       49.842050
  C           14.478080        9.190480       54.768860
  C           22.842100        8.425460       55.022240
  C           19.560240       15.903520       54.898580
  C            7.231880       24.748490       59.621300
  C           -5.240390       26.329160       59.364530
  C           -0.351900       14.701310       59.214590
  C           12.263900        8.289900       55.210210
  C           24.713170        6.869370       54.996750
  C           19.896750       18.311910       54.866820
  C            6.860900       22.269250       59.165710
  C           -2.884130       27.257000       59.237190
  C           -2.313130       16.307820       59.296330
  C           12.650170       10.802430       55.177050
  C           22.348460        6.013500       55.259290
  C           21.862620       16.739670       55.211100
  C            6.385140       23.674050       59.303300
  C           -3.849410       26.133790       59.365530
  C           -0.868270       15.987510       59.441390
  C           13.114610        9.395360       55.038170
  C           23.332160        7.110490       55.076000
  C           20.419220       17.012880       54.979920
  C            6.617460       25.959250       49.769570
  C           -6.091640       25.232450       59.459510
  C            1.015780       14.472730       59.338750
  C           12.780710        6.998090       55.132250
  C           25.596790        7.939240       54.892610
  C           18.525900       18.494690       54.697470
  C            4.501200       25.198180       59.157150
  C           -4.176680       23.734040       59.514470
  C            1.279540       16.741390       49.916320
  C           15.003860        7.901610       54.738190
  C           23.728410        9.497030       54.969070
  C           18.185810       16.087990       54.782400
  C            4.873790       27.688380       59.487490
  C           -6.545920       22.811400       59.481510
  C            3.342640       15.226470       59.625680
  C           14.660510        5.397520       54.984310
  C           26.111890       10.355140       54.953940
  C           16.196450       17.657960       54.685030
  C            5.348080       26.275490       59.470060
  C           -5.567570       23.930950       59.504310
  C            1.886820       15.533490       59.637620
  C           14.157030        6.797590       54.929450
  C           25.111910        9.256120       54.918100
  C           17.660580       17.387860       54.693090
  C            6.449370       16.870660       59.578190
  C            2.001440       29.600940       59.416700
  C           -6.832140       19.400550       59.457520
  C           13.102520       16.207470       54.931040
  C           17.540260        3.506560       55.015070
  C           26.298830       13.775030       55.146390
  C           10.221360       17.088410       57.273080
  C           18.388530        0.550310       57.273480
  C           28.578970       15.983740       57.255860
  C            9.411330       15.981130       57.334810
  C           19.755980        0.423020       57.281250
  C           -9.088010       17.220390       57.288020
  C           13.975940       17.544440       56.754280
  C           16.054560        3.562380       56.928010
  C           27.315490       12.400130       56.863990
  C            5.676540       15.374410       57.836390
  C            3.602280       29.707410       57.601330
  C           -7.593990       20.719000       57.570270
  C           12.691450       17.665880       57.279850
  C           16.647310        2.398120       57.415450
  C           28.047120       13.502280       57.303050
  C            6.975390       15.288680       57.342480
  C            3.017570       30.894300       57.162970
  C           -8.366070       19.647140       57.128720
  C            8.036210       16.017230       57.914250
  C            1.889670       31.444450       57.802140
  C           -8.362720       18.416700       57.811800
  C           11.589300       17.032190       56.676620
  C           17.708910        1.770280       56.736260
  C           27.889890       14.773790       56.718830
  C           10.307230       19.162460       58.772650
  C           -1.964570       31.761480       58.771550
  C           -6.677680       14.992460       58.761700
  C            9.346140       13.950570       55.788750
  C           21.510910        1.479240       55.751510
  C           26.196750       18.215020       55.756390
  C            9.800490       20.409250       59.155460
  C           -2.769410       30.678800       59.136540
  C           -5.330330       14.831300       59.097810
  C            9.828700       12.698550       55.396680
  C           22.288170        2.576640       55.372090
  C           24.860620       18.354830       55.368900
  C            9.903600       14.636760       56.882510
  C           20.621210        1.561830       56.836710
  C           26.556750       17.422120       56.860910
  C            9.738390       18.440070       57.708660
  C           -1.063830       31.665760       57.696810
  C           -7.062840       15.808450       57.683270
  C           10.900990       12.139990       56.080860
  C           22.152760        3.776160       56.060840
  C           23.871990       17.680060       56.075780
  C            8.706230       20.937230       58.478350
  C           -2.660630       29.484020       58.434740
  C           -4.360250       15.510090       58.369530
  C           11.822600       16.341910       55.470650
  C           18.112700        2.334630       55.510780
  C           27.044820       14.862740       55.594310
  C            7.742470       16.778320       59.063460
  C            1.431980       30.791270       58.964300
  C           -7.616930       18.338920       59.005320
  C           14.172480       16.795550       55.597390
  C           16.518360        4.115380       55.736080
  C           26.418960       12.558950       55.811650
  C            5.420970       16.175180       58.947580
  C            3.072760       29.056740       58.712520
  C           -6.815980       20.578310       58.715400
  C            8.653540       19.023830       57.031450
  C           -1.001140       30.446820       56.998800
  C           -6.051750       16.486800       56.980970
  C           10.970530       14.025630       57.564000
  C           20.522350        2.790900       57.511930
  C           25.523380       16.774710       57.562200
  C            8.132440       20.259260       57.403510
  C           -1.784900       29.353780       57.357910
  C           -4.706290       16.351410       57.314700
  C           11.477170       12.788430       57.171130
  C           21.271620        3.900230       57.132800
  C           24.188780       16.889400       57.178300
  O            8.099800       22.180680       53.827120
  O           -3.572370       28.377540       53.706460
  O           -3.127860       15.290120       53.961830
  O           11.328160       10.887330       50.837250
  O           23.015950        4.709960       50.644400
  O           22.525880       17.813740       50.835460
  O            6.114830       21.250000       54.502040
  O           -1.768540       27.202420       54.497660
  O           -2.905040       17.561910       54.231730
  O           13.275320       11.855940       50.105680
  O           21.191190        5.937320       49.979140
  O           22.363350       15.605800       50.235010
  O            3.521730       27.735470       54.097930
  O           -6.006740       21.629010       54.028830
  O            3.981960       16.454810       54.357680
  O           15.962580        5.428840       50.635740
  O           25.525870       11.421650       50.310480
  O           15.481230       16.641760       50.371210
  O            5.559010       28.624720       54.688810
  O           -7.760940       22.879980       54.823910
  O            3.686250       14.286920       55.052900
  O           13.997450        4.494650       49.905370
  O           27.387870       10.195890       59.601580
  O           15.794390       18.816000       59.409730
  O            8.212160       22.202790       58.869320
  O           -3.503670       28.412280       58.797640
  O           -2.999810       15.283550       58.673390
  O           11.367450       10.865090       55.689690
  O           22.975290        4.855530       55.684510
  O           22.524520       17.855650       55.687300
  O            6.145750       21.288730       59.276420
  O           -1.690490       27.181460       59.473450
  O           -2.835220       17.345910       59.665600
  O           13.312940       11.786770       54.894900
  O           21.147030        6.111760       55.083470
  O           22.401990       15.662370       55.023930
  O            3.558010       27.782510       59.072030
  O           -5.950790       21.629610       59.082680
  O            4.101300       16.362490       59.403060
  O           16.008240        5.354130       55.291550
  O           25.548940       11.508770       55.462890
  O           15.489470       16.563480       55.149470
  O            5.459640       28.573870       49.847230
  O           -7.822850       22.843060       49.784010
  O            3.721400       14.032890       49.788290
  O           13.973230        4.405830       54.820330
  O           27.279720       10.256800       54.621810
  O           15.678730       18.713270       54.365040
  H            4.400710       23.074400       64.696750
  H           -2.211720       24.773320       64.267250
  H           -0.373530       18.297200       64.130750
  H           15.226780       10.223490       59.958700
  H           21.874460        8.490190       59.947750
  H           20.039570       14.974340       60.121380
  H            8.347810       24.640530       64.023230
  H           -5.605230       27.408370       64.359640
  H           -1.113100       14.102730       64.704510
  H           11.274340        8.591960       60.390590
  H           25.227210        5.801590       59.933220
  H           20.681070       19.224140       60.071310
  H            7.442170       26.973260       64.168780
  H           -7.134470       25.427040       64.542930
  H            1.349840       13.710600       64.982090
  H           12.219170        6.272540       60.254990
  H           26.788890        7.758090       59.748930
  H           18.218440       19.588650       59.765460
  H            3.476730       25.410390       64.723930
  H           -3.747930       22.788060       64.317330
  H            2.095310       17.891500       64.322800
  H           16.185660        7.901090       59.938390
  H           23.441050       10.450450       59.874280
  H           17.561200       15.343350       59.938000
  H            6.238410       17.461740       60.465660
  H            1.626940       29.103320       60.307560
  H           -6.256430       19.319360       60.376560
  H           13.361980       15.744400       63.958810
  H           17.959360        4.011860       64.027810
  H           25.725180       13.937980       64.247330
  H           14.656560       18.578350       62.018090
  H           15.000340        3.753260       62.322150
  H           27.517160       11.402530       62.160170
  H            4.903830       14.761510       62.479850
  H            4.607200       29.442140       62.171520
  H           -7.965880       21.771670       62.261320
  H           12.352400       18.761760       62.801130
  H           16.012150        1.629830       62.972570
  H           28.798240       13.312640       62.976460
  H            7.185300       14.580480       61.629120
  H            3.597440       31.538820       61.441050
  H           -9.283510       19.845370       61.560520
  H           11.006930       18.729210       64.337830
  H           -1.840510       32.639020       64.408020
  H           -7.476400       14.528950       64.373680
  H            8.575880       14.466110       60.188190
  H           21.472100        0.577150       60.063240
  H           27.048040       18.670200       60.146770
  H           10.223470       20.940070       60.004300
  H           -3.440130       30.747010       59.988970
  H           -5.039770       14.214030       59.943470
  H            9.501020       12.264690       64.491260
  H           23.049130        2.593880       64.474530
  H           24.686210       19.021550       64.451730
  H           11.191640       15.567510       60.157420
  H           19.224810        2.295200       60.185900
  H           26.894640       15.847580       60.062740
  H            8.487430       17.557200       64.450740
  H            0.494160       31.091030       64.387710
  H           -7.108650       17.343940       64.306570
  H            8.232790       18.610150       61.048680
  H           -0.363180       30.445140       61.012140
  H           -6.202590       16.902750       61.010150
  H           11.358060       14.641860       63.470070
  H           20.113260        2.862550       63.452550
  H           25.895180       16.164080       63.451160
  H            7.300470       20.787240       61.745300
  H           -1.770500       28.514950       61.636680
  H           -3.868420       16.743930       61.773180
  H           12.300260       12.465610       62.799340
  H           21.479300        4.781200       62.713220
  H           23.525160       16.387970       62.805910
  H            4.466700       23.135760       68.816130
  H           -2.151920       24.789340       69.437580
  H           -0.429050       18.019300       59.983990
  H           15.202580       10.139770       64.575380
  H           21.857940        8.659510       65.015540
  H           20.083160       14.984570       64.921150
  H            8.290580       24.568280       59.788460
  H           -5.552560       27.411800       69.239450
  H           -0.931020       13.969910       68.894480
  H           11.299800        8.526520       65.368280
  H           25.174050        5.925310       64.983180
  H           20.657600       19.244080       64.876350
  H            7.343110       26.883300       59.979010
  H           -7.080340       25.431090       69.419660
  H            1.531570       13.561990       69.132430
  H           12.232120        6.206050       65.222220
  H           26.762540        7.856910       64.789240
  H           18.189940       19.568240       64.563930
  H            3.540620       25.459090       68.915390
  H           -3.683890       22.801630       69.505580
  H            2.048590       17.635960       60.107250
  H           16.159230        7.820750       64.534370
  H           23.453220       10.596820       64.934790
  H           17.604370       15.312240       64.728410
  H            6.171150       17.747290       65.305360
  H            1.524510       28.970000       65.138490
  H           -5.769910       19.298630       65.008670
  H           13.620050       15.448660       69.338220
  H           18.292020        4.519490       69.483280
  H           25.677700       13.987140       69.202420
  H           14.908620       18.092910       67.213810
  H           15.341870        4.113840       67.441610
  H           27.516530       11.516770       67.317460
  H            4.967520       14.906660       67.300030
  H            4.537290       29.361480       67.016890
  H           -7.494010       21.731230       66.971490
  H           12.666480       18.309440       68.152260
  H           16.383530        2.092140       68.320620
  H           28.808400       13.436280       68.098400
  H            7.230450       14.741270       66.428790
  H            3.529130       31.439410       66.237030
  H           -8.841330       19.856050       66.169930
  H           11.198800       18.806980       69.323980
  H           -1.908820       32.736040       69.339810
  H           -7.337090       14.599220       69.348170
  H            8.666250       14.496530       65.138490
  H           21.648840        0.658520       65.096880
  H           27.054180       18.750870       65.091800
  H           10.113530       20.946640       64.997120
  H           -3.301760       30.724980       64.994330
  H           -5.118300       14.303710       65.092900
  H            9.560070       12.316700       69.523200
  H           22.994430        2.553240       69.324680
  H           24.754930       19.037280       69.503980
  H           11.068540       15.986440       64.903030
  H           18.986320        1.920110       64.895970
  H           27.064060       15.884530       65.023200
  H            8.641930       17.374820       69.523000
  H            0.702250       31.307260       69.476110
  H           -7.565100       17.499740       69.542220
  H            8.288930       18.569280       66.159380
  H           -0.223690       30.429380       66.118660
  H           -6.236470       17.217770       66.116670
  H           11.514170       14.609650       68.367310
  H           19.922570        2.958260       68.299210
  H           25.859450       16.233960       68.375770
  H            7.379090       20.758040       66.822250
  H           -1.622320       28.497390       66.760120
  H           -3.847230       16.959970       66.712330
  H           12.399920       12.414770       67.664020
  H           21.267870        4.918360       67.624500
  H           23.501240       16.445240       67.684430
  C            5.049460       23.938750       64.572200
  C           -3.291040       24.898440       64.311750
  C            0.020180       17.300150       64.313340
  C           14.586090        9.347790       60.032780
  C           22.952030        8.347740       59.913500
  C           19.621370       15.976170       60.056670
  C            7.289890       24.813430       64.200440
  C           -5.205860       26.398060       64.371880
  C           -0.409060       14.927910       64.642190
  C           12.342210        8.434000       60.268230
  C           24.843020        6.817200       59.899070
  C           19.998250       18.380030       60.021130
  C            6.882400       22.315030       64.225430
  C           -2.861210       27.329530       64.171970
  C           -2.321090       16.523990       64.169980
  C           12.716080       10.934580       60.316620
  C           22.482210        5.930870       60.140100
  C           21.935110       16.773510       60.352060
  C            6.418920       23.720670       64.347890
  C           -3.817800       26.200170       64.296620
  C           -0.882010       16.226540       64.393290
  C           13.204540        9.539550       60.190180
  C           23.457450        7.038230       59.964880
  C           20.496970       17.071290       60.129650
  C            6.790250       26.109390       64.272620
  C           -6.057110       25.300710       64.466960
  C            0.956090       14.706970       64.794610
  C           12.864110        7.146450       60.199440
  C           25.711870        7.900040       59.802590
  C           18.630950       18.586380       59.856750
  C            4.541570       25.234960       64.593700
  C           -4.144670       23.799350       64.348790
  C            1.387950       17.073100       64.426840
  C           15.113290        8.059990       60.015550
  C           23.823190        9.432900       59.866710
  C           18.250130       16.183590       59.947060
  C            4.947060       27.735690       64.412310
  C           -6.501260       22.871870       64.440780
  C            3.310980       15.447460       64.704020
  C           14.747370        5.556930       60.145880
  C           26.203220       10.316540       59.860440
  C           16.294140       17.780360       59.812650
  C            5.413610       26.325090       64.440780
  C           -5.532860       23.998260       64.430720
  C            1.861880       15.771790       64.662300
  C           14.251430        6.955180       60.104860
  C           25.209700        9.211390       59.822210
  C           17.750450       17.492470       59.855460
  C            6.406890       17.072910       64.486080
  C            1.957050       29.533930       64.316030
  C           -6.533090       19.398080       64.241160
  C           13.257720       16.098080       60.144580
  C           17.741900        3.824230       60.295410
  C           26.281140       13.800120       60.074590
  C           10.202960       17.167900       62.189340
  C           18.435990        0.589360       62.213930
  C           28.633100       15.949230       62.190130
  C            9.392250       16.064040       62.318470
  C            1.244870       32.689850       62.278940
  C           -8.991250       17.206030       62.283520
  C           13.896340       17.917490       61.610300
  C           15.928360        3.433350       61.854720
  C           27.377060       12.377440       61.700800
  C            5.688170       15.380300       62.908260
  C            3.707530       29.804140       62.662250
  C           -7.776400       20.800220       62.709640
  C           12.579440       18.008320       62.056030
  C           16.517820        2.227540       62.223590
  C           28.099820       13.476220       62.163250
  C            6.992350       15.285660       62.428980
  C            3.118210       30.995720       62.246980
  C           -8.519500       19.690660       62.312390
  C            8.027130       16.110290       62.918010
  C            1.915540       31.467900       62.810690
  C           -8.264190       18.398220       62.818160
  C           11.576390       17.123710       61.606610
  C           17.755970        1.810430       61.693130
  C           27.909880       14.768450       61.630910
  C           10.237870       19.196780       63.726540
  C           -1.859380       31.767040       63.757800
  C           -6.691170       14.964900       63.759790
  C            9.344460       14.010550       60.808350
  C           21.514090        1.465720       60.689570
  C           26.284830       18.218900       60.776790
  C            9.727890       20.436550       64.118900
  C           -2.670820       30.685230       64.110640
  C           -5.365800       14.851840       64.188200
  C            9.857760       12.765440       60.434400
  C           22.305310        2.539950       60.274510
  C           24.943930       18.368910       60.415380
  C            9.873610       14.708060       61.907980
  C           20.711730        1.558490       61.840680
  C           26.652790       17.428890       61.880300
  C            9.712840       18.517530       62.613460
  C           -1.021620       31.705400       62.630190
  C           -7.020360       15.713000       62.615750
  C           10.920720       12.231650       61.153420
  C           22.275570        3.723020       61.004380
  C           23.967770       17.703370       61.148540
  C            8.672360       20.989700       63.403170
  C           -2.626840       29.530520       63.339150
  C           -4.366800       15.509820       63.478440
  C           11.945120       16.208630       60.596580
  C           18.317040        2.615960       60.679520
  C           27.014380       14.886090       60.547000
  C            7.705580       16.963660       63.993560
  C            1.381100       30.726350       63.884240
  C           -7.287240       18.300360       63.832570
  C           14.229700       16.938860       60.678420
  C           16.562150        4.233280       60.908000
  C           26.457360       12.554480       60.669760
  C            5.401170       16.297630       63.916900
  C            3.109430       29.074130       63.686320
  C           -6.768710       20.637670       63.655750
  C            8.656640       19.116560       61.909480
  C           -1.008550       30.519270       61.880200
  C           -5.977800       16.326140       61.902510
  C           10.932820       14.123270       62.617940
  C           20.726570        2.763100       62.562190
  C           25.634420       16.784860       62.600620
  C            8.126420       20.343720       62.296660
  C           -1.797800       29.427740       62.226670
  C           -4.655450       16.240140       62.327530
  C           11.469660       12.895900       62.245690
  C           21.494280        3.849940       62.150910
  C           24.295970       16.906190       62.241510
  C            5.106740       23.983230       69.050290
  C           -3.232320       24.911750       69.425430
  C           -0.002800       17.036150       59.798010
  C           14.570000        9.267870       64.724820
  C           22.934010        8.502850       64.978200
  C           19.652160       15.980910       64.854550
  C            7.323800       24.825890       69.577260
  C           -5.148480       26.406550       69.320500
  C           -0.259990       14.778700       69.170560
  C           12.355810        8.367300       65.166170
  C           24.805090        6.946760       64.952720
  C           19.988660       18.389300       64.822790
  C            6.952820       22.346640       69.121680
  C           -2.792210       27.334390       69.193160
  C           -2.221210       16.385210       69.252300
  C           12.742080       10.879820       65.133020
  C           22.440380        6.090890       65.215250
  C           21.954540       16.817060       65.167070
  C            6.477060       23.751440       69.259270
  C           -3.757490       26.211180       69.321490
  C           -0.776350       16.064900       69.397360
  C           13.206530        9.472750       64.994130
  C           23.424080        7.187880       65.031960
  C           20.511140       17.090270       64.935890
  C            6.709380       26.036640       59.725530
  C           -5.999720       25.309840       69.415480
  C            1.107700       14.550120       69.294710
  C           12.872630        7.075480       65.088220
  C           25.688710        8.016640       64.848580
  C           18.617820       18.572080       64.653440
  C            4.593120       25.275570       69.113110
  C           -4.084760       23.811430       69.470430
  C            1.371450       16.818780       59.872290
  C           15.095780        7.979000       64.694160
  C           23.820330        9.574420       64.925040
  C           18.277720       16.165380       64.738360
  C            4.965710       27.765770       69.443450
  C           -6.454000       22.888790       69.437480
  C            3.434560       15.303860       69.581640
  C           14.752430        5.474910       64.940270
  C           26.203810       10.432530       64.909900
  C           16.288370       17.735360       64.640990
  C            5.439990       26.352880       69.426030
  C           -5.475650       24.008340       69.460280
  C            1.978730       15.610880       69.593590
  C           14.248950        6.874980       64.885410
  C           25.203820        9.333510       64.874060
  C           17.752500       17.465250       64.649060
  C            6.541290       16.948050       69.534150
  C            2.093360       29.678340       69.372670
  C           -6.740220       19.477950       69.413490
  C           13.194440       16.284860       64.887010
  C           17.632180        3.583950       64.971030
  C           26.390750       13.852420       65.102350
  C           10.313280       17.165810       67.229050
  C           18.480440        0.627700       67.229450
  C           28.670880       16.061130       67.211820
  C            9.503250       16.058520       67.290770
  C           19.847900        0.500410       67.237210
  C           -8.996090       17.297780       67.243980
  C           14.067860       17.621840       66.710240
  C           16.146480        3.639770       66.883970
  C           27.407410       12.477520       66.819960
  C            5.768460       15.451800       67.792360
  C            3.694200       29.784800       67.557300
  C           -7.502070       20.796400       67.526230
  C           12.783370       17.743270       67.235820
  C           16.739220        2.475510       67.371420
  C           28.139040       13.579670       67.259010
  C            7.067300       15.366070       67.298440
  C            3.109490       30.971690       67.118930
  C           -8.274150       19.724530       67.084690
  C            8.128130       16.094620       67.870210
  C            1.981590       31.521840       67.758110
  C           -8.270800       18.494090       67.767760
  C           11.681220       17.109590       66.632590
  C           17.800830        1.847670       66.692220
  C           27.981810       14.851190       66.674800
  C           10.399140       19.239850       68.728610
  C           -1.872650       31.838880       68.727520
  C           -6.585760       15.069850       68.717660
  C            9.438060       14.027960       65.744710
  C           21.602830        1.556630       65.707480
  C           26.288670       18.292410       65.712360
  C            9.892410       20.486640       69.111420
  C           -2.677490       30.756200       69.092500
  C           -5.238410       14.908690       69.053780
  C            9.920620       12.775940       65.352650
  C           22.380090        2.654030       65.328050
  C           24.952540       18.432220       65.324870
  C            9.995520       14.714150       66.838470
  C           20.713120        1.639220       66.792680
  C           26.648670       17.499510       66.816870
  C            9.830310       18.517460       67.664620
  C           -0.971910       31.743150       67.652770
  C           -6.970930       15.885850       67.639230
  C           10.992910       12.217380       66.036820
  C           22.244680        3.853550       66.016810
  C           23.963910       17.757450       66.031740
  C            8.798150       21.014630       68.434320
  C           -2.568710       29.561410       68.390710
  C           -4.268330       15.587480       68.325500
  C           11.914510       16.419300       65.426620
  C           18.204620        2.412020       65.466740
  C           27.136740       14.940130       65.550270
  C            7.834390       16.855710       69.019430
  C            1.523900       30.868660       68.920270
  C           -7.525010       18.416320       68.961290
  C           14.264400       16.872940       65.553360
  C           16.610270        4.192770       65.692050
  C           26.510880       12.636340       65.767610
  C            5.512890       16.252570       68.903540
  C            3.164670       29.134130       68.668480
  C           -6.724060       20.655700       68.671370
  C            8.745460       19.101220       66.987420
  C           -0.909230       30.524220       66.954760
  C           -5.959830       16.564190       66.936940
  C           11.062450       14.103020       67.519960
  C           20.614270        2.868290       67.467890
  C           25.615300       16.852100       67.518170
  C            8.224360       20.336650       67.359470
  C           -1.692980       29.431170       67.313870
  C           -4.614380       16.428800       67.270660
  C           11.569090       12.865820       67.127100
  C           21.363530        3.977620       67.088770
  C           24.280700       16.966790       67.134270
  O            8.191710       22.258070       63.783090
  O           -3.480450       28.454930       63.662420
  O           -3.035940       15.367520       63.917790
  O           11.420080       10.964720       60.793210
  O           23.107870        4.787350       60.600370
  O           22.617800       17.891130       60.791420
  O            6.206750       21.327390       64.458000
  O           -1.676630       27.279810       64.453620
  O           -2.813130       17.639300       64.187700
  O           13.367240       11.933330       60.061650
  O           21.283110        6.014710       59.935110
  O           22.455270       15.683190       60.190980
  O            3.613650       27.812860       64.053890
  O           -5.914830       21.706400       63.984800
  O            4.073880       16.532200       64.313640
  O           16.054500        5.506230       60.591700
  O           25.617790       11.499040       60.266440
  O           15.573150       16.719150       60.327170
  O            5.650930       28.702110       64.644780
  O           -7.669020       22.957370       64.779880
  O            3.778170       14.364310       65.008870
  O           14.089370        4.572040       59.861330
  O           27.479780       10.273280       69.557550
  O           15.886310       18.893390       69.365700
  O            8.304080       22.280180       68.825290
  O           -3.411750       28.489670       68.753600
  O           -2.907890       15.360940       68.629350
  O           11.459370       10.942480       65.645650
  O           23.067210        4.932920       65.640470
  O           22.616440       17.933040       65.643260
  O            6.237670       21.366120       69.232390
  O           -1.598580       27.258850       69.429410
  O           -2.743300       17.423300       69.621560
  O           13.404860       11.864160       64.850870
  O           21.238950        6.189150       65.039430
  O           22.493910       15.739760       64.979890
  O            3.649930       27.859910       69.027990
  O           -5.858870       21.707000       69.038640
  O            4.193220       16.439880       69.359030
  O           16.100160        5.431520       65.247510
  O           25.640860       11.586160       65.418850
  O           15.581390       16.640870       65.105440
  O            5.551560       28.651260       59.803190
  O           -7.730940       22.920450       59.739970
  O            3.813320       14.110280       59.744250
  O           14.065150        4.483220       64.776300
  O           27.371640       10.334190       64.577770
  O           15.770650       18.790660       64.321010
  H          -14.709730       54.849960        4.960960
  H          -21.322160       56.548890        4.531460
  H          -19.483970       50.072760        4.394960
  H           -3.883670       41.999050        0.222910
  H            2.764010       40.265750        0.211960
  H            0.929120       46.749900        0.385590
  H          -10.762630       56.416100        4.287440
  H          -24.715680       59.183930        4.623850
  H          -20.223540       45.878300        4.968720
  H           -7.836110       40.367530        0.654800
  H            6.116770       37.577150        0.197430
  H            1.570620       50.999700        0.335520
  H          -11.668280       58.748820        4.432990
  H          -26.244910       57.202600        4.807140
  H          -17.760600       45.486160        5.246300
  H           -6.891270       38.048100        0.519200
  H            7.678450       39.533650        0.013140
  H           -0.892000       51.364210        0.029670
  H          -15.633720       57.185950        4.988140
  H          -22.858370       54.563620        4.581540
  H          -17.015130       49.667070        4.587010
  H           -2.924790       39.676660        0.202600
  H            4.330610       42.226010        0.138490
  H           -1.549240       47.118910        0.202210
  H          -12.872030       49.237310        0.729870
  H          -17.483500       60.878880        0.571770
  H          -25.366870       51.094920        0.640770
  H           -5.748460       47.519960        4.223020
  H           -1.151080       35.787430        4.292020
  H            6.614740       45.713540        4.511550
  H           -4.453890       50.353920        2.282310
  H           -4.110110       35.528820        2.586360
  H            8.406720       43.178090        2.424380
  H          -14.206610       46.537080        2.744060
  H          -14.503250       61.217700        2.435730
  H          -27.076330       53.547240        2.525530
  H           -6.758040       50.537320        3.065340
  H           -3.098290       33.405400        3.236780
  H            9.687800       45.088210        3.240670
  H          -11.925140       46.356040        1.893330
  H          -15.513000       63.314390        1.705260
  H          -28.393950       51.620930        1.824730
  H           -8.103510       50.504780        4.602050
  H          -20.950950       64.414590        4.672230
  H          -26.586840       46.304520        4.637890
  H          -10.534570       46.241680        0.452400
  H            2.361660       32.352720        0.327450
  H            7.937590       50.445760        0.410980
  H           -8.886970       52.715630        0.268510
  H          -22.550570       62.522570        0.253180
  H          -24.150210       45.989590        0.207680
  H           -9.609420       44.040250        4.755470
  H            3.938690       34.369440        4.738740
  H            5.575770       50.797110        4.715940
  H           -7.918800       47.343070        0.421640
  H            0.114360       34.070770        0.450110
  H            7.784200       47.623150        0.326950
  H          -10.623010       49.332770        4.714950
  H          -18.616290       62.866590        4.651920
  H          -26.219090       49.119510        4.570780
  H          -10.877650       50.385710        1.312890
  H          -19.473620       62.220700        1.276350
  H          -25.313040       48.678310        1.274360
  H           -7.752380       46.417430        3.734280
  H            1.002820       34.638120        3.716760
  H            6.784740       47.939650        3.715370
  H          -11.809970       52.562810        2.009510
  H          -20.880940       60.290520        1.900890
  H          -22.978860       48.519500        2.037390
  H           -6.810180       44.241180        3.063550
  H            2.368860       36.556770        2.977430
  H            4.414720       48.163530        3.070120
  H          -14.643740       54.911320        9.080340
  H          -21.262360       56.564900        9.701790
  H          -19.539490       49.794860        0.248200
  H           -3.907860       41.915330        4.839590
  H            2.747500       40.435070        5.279750
  H            0.972720       46.760130        5.185370
  H          -10.819860       56.343850        0.052670
  H          -24.663000       59.187370        9.503670
  H          -20.041460       45.745480        9.158690
  H           -7.810640       40.302080        5.632490
  H            6.063610       37.700880        5.247390
  H            1.547160       51.019640        5.140560
  H          -11.767340       58.658860        0.243220
  H          -26.190780       57.206660        9.683870
  H          -17.578870       45.337560        9.396640
  H           -6.878320       37.981610        5.486430
  H            7.652100       39.632470        5.053450
  H           -0.920500       51.343800        4.828150
  H          -15.569820       57.234660        9.179600
  H          -22.794330       54.577190        9.769790
  H          -17.061860       49.411520        0.371460
  H           -2.951210       39.596320        4.798580
  H            4.342770       42.372390        5.199000
  H           -1.506080       47.087800        4.992620
  H          -12.939300       49.522850        5.569570
  H          -17.585940       60.745560        5.402700
  H          -24.880350       51.074190        5.272880
  H           -5.490390       47.224230        9.602430
  H           -0.818420       36.295060        9.747490
  H            6.567250       45.762700        9.466630
  H           -4.201820       49.868470        7.478020
  H           -3.768570       35.889400        7.705820
  H            8.406090       43.292330        7.581670
  H          -14.142920       46.682230        7.564240
  H          -14.573150       61.137050        7.281100
  H          -26.604450       53.506800        7.235700
  H           -6.443960       50.085000        8.416470
  H           -2.726920       33.867700        8.584830
  H            9.697960       45.211840        8.362610
  H          -11.880000       46.516830        6.693000
  H          -15.581310       63.214970        6.501250
  H          -27.951770       51.631620        6.434140
  H           -7.911640       50.582550        9.588190
  H          -21.019260       64.511600        9.604020
  H          -26.447530       46.374780        9.612380
  H          -10.444190       46.272100        5.402700
  H            2.538390       32.434080        5.361090
  H            7.943740       50.526440        5.356010
  H           -8.996910       52.722200        5.261330
  H          -22.412200       62.500550        5.258540
  H          -24.228740       46.079270        5.357110
  H           -9.550370       44.092270        9.787410
  H            3.883990       34.328800        9.588890
  H            5.644490       50.812850        9.768200
  H           -8.041900       47.762010        5.167250
  H           -0.124120       33.695680        5.160180
  H            7.953620       47.660100        5.287410
  H          -10.468510       49.150380        9.787210
  H          -18.408190       63.082820        9.740320
  H          -26.675540       49.275300        9.806430
  H          -10.821510       50.344840        6.423590
  H          -19.334130       62.204940        6.382870
  H          -25.346910       48.993330        6.380880
  H           -7.596280       46.385210        8.631520
  H            0.812130       34.733820        8.563420
  H            6.749000       48.009520        8.639990
  H          -11.731350       52.533600        7.086460
  H          -20.732760       60.272960        7.024330
  H          -22.957680       48.735530        6.976540
  H           -6.710530       44.190330        7.928230
  H            2.157430       36.693920        7.888710
  H            4.390800       48.220800        7.948640
  C          -14.060980       55.714310        4.836410
  C          -22.401480       56.674000        4.575960
  C          -19.090270       49.075710        4.577550
  C           -4.524350       41.123350        0.296990
  C            3.841590       40.123310        0.177710
  C            0.510930       47.751740        0.320880
  C          -11.820550       56.588990        4.464650
  C          -24.316310       58.173630        4.636090
  C          -19.519510       46.703480        4.906400
  C           -6.768230       40.209570        0.532450
  C            5.732570       38.592770        0.163280
  C            0.887800       50.155590        0.285340
  C          -12.228040       54.090590        4.489640
  C          -21.971650       59.105100        4.436180
  C          -21.431540       48.299550        4.434190
  C           -6.394360       42.710150        0.580830
  C            3.371770       37.706430        0.404310
  C            2.824670       48.549070        0.616270
  C          -12.691520       55.496240        4.612100
  C          -22.928250       57.975730        4.560830
  C          -19.992450       48.002100        4.657500
  C           -5.905900       41.315110        0.454390
  C            4.347010       38.813800        0.229090
  C            1.386520       48.846850        0.393860
  C          -12.320190       57.884950        4.536830
  C          -25.167550       57.076270        4.731170
  C          -18.154350       46.482530        5.058820
  C           -6.246330       38.922010        0.463650
  C            6.601430       39.675600        0.066800
  C           -0.479490       50.361940        0.120960
  C          -14.568870       57.010520        4.857910
  C          -23.255120       55.574910        4.613000
  C          -17.722500       48.848660        4.691050
  C           -3.997150       39.835550        0.279760
  C            4.712750       41.208460        0.130920
  C           -0.860310       47.959160        0.211270
  C          -14.163380       59.511250        4.676520
  C          -25.611710       54.647440        4.704990
  C          -15.799460       47.223020        4.968230
  C           -4.363070       37.332490        0.410090
  C            7.092780       42.092110        0.124650
  C           -2.816300       49.555920        0.076860
  C          -13.696840       58.100660        4.704990
  C          -24.643300       55.773820        4.694930
  C          -17.248560       47.547350        4.926510
  C           -4.859010       38.730740        0.369070
  C            6.099260       40.986950        0.086420
  C           -1.359990       49.268030        0.119670
  C          -12.703550       48.848480        4.750290
  C          -17.153400       61.309490        4.580240
  C          -25.643540       51.173650        4.505370
  C           -5.852730       47.873640        0.408790
  C           -1.368540       35.599790        0.559620
  C            7.170700       45.575680        0.338800
  C           -8.907480       48.943460        2.453550
  C           -0.674450       32.364920        2.478140
  C            9.522660       47.724800        2.454340
  C           -9.718190       47.839600        2.582680
  C          -17.865570       64.465420        2.543150
  C          -28.101690       48.981590        2.547730
  C           -5.214100       49.693050        1.874510
  C           -3.182080       35.208910        2.118930
  C            8.266620       44.153000        1.965010
  C          -13.422270       47.155870        3.172470
  C          -15.402910       61.579700        2.926460
  C          -26.886840       52.575790        2.973850
  C           -6.531000       49.783890        2.320240
  C           -2.592630       34.003110        2.487800
  C            8.989380       45.251790        2.427460
  C          -12.118090       47.061220        2.693190
  C          -15.992230       62.771290        2.511190
  C          -27.629940       51.466220        2.576600
  C          -11.083310       47.885850        3.182230
  C          -17.194900       63.243470        3.074900
  C          -27.374630       50.173790        3.082370
  C           -7.534050       48.899280        1.870830
  C           -1.354470       33.585990        1.957340
  C            8.799440       46.544020        1.895120
  C           -8.872580       50.972340        3.990750
  C          -20.969830       63.542600        4.022010
  C          -25.801610       46.740460        4.024000
  C           -9.765980       45.786110        1.072560
  C            2.403650       33.241280        0.953780
  C            7.174390       49.994460        1.041000
  C           -9.382560       52.212110        4.383110
  C          -21.781260       62.460790        4.374850
  C          -24.476240       46.627410        4.452410
  C           -9.252680       44.541000        0.698610
  C            3.194870       34.315510        0.538720
  C            5.833490       50.144470        0.679590
  C           -9.236830       46.483630        2.172190
  C            1.601290       33.334050        2.104890
  C            7.542340       49.204460        2.144510
  C           -9.397600       50.293100        2.877670
  C          -20.132060       63.480960        2.894400
  C          -26.130800       47.488560        2.879960
  C           -8.189720       44.007220        1.417630
  C            3.165130       35.498590        1.268590
  C            4.857330       49.478940        1.412750
  C          -10.438080       52.765270        3.667380
  C          -21.737290       61.306090        3.603360
  C          -23.477250       47.285390        3.742650
  C           -7.165320       47.984190        0.860790
  C           -0.793400       34.391520        0.943730
  C            7.903940       46.661650        0.811210
  C          -11.404860       48.739220        4.257770
  C          -17.729340       62.501910        4.148450
  C          -26.397680       50.075930        4.096780
  C           -4.880750       48.714420        0.942630
  C           -2.548290       36.008840        1.172220
  C            7.346920       44.330050        0.933970
  C          -13.709270       48.073190        4.181110
  C          -16.001020       60.849690        3.950530
  C          -25.879160       52.413240        3.919960
  C          -10.453800       50.892120        2.173690
  C          -20.119000       62.294830        2.144420
  C          -25.088240       48.101700        2.166720
  C           -8.177630       45.898830        2.882150
  C            1.616130       34.538670        2.826400
  C            6.523970       48.560420        2.864830
  C          -10.984020       52.119280        2.560870
  C          -20.908240       61.203300        2.490880
  C          -23.765890       48.015700        2.591740
  C           -7.640780       44.671470        2.509900
  C            2.383830       35.625500        2.415120
  C            5.185530       48.681760        2.505720
  C          -14.003700       55.758790        9.314500
  C          -22.342760       56.687320        9.689640
  C          -19.113240       48.811710        0.062220
  C           -4.540440       41.043440        4.989030
  C            3.823570       40.278420        5.242410
  C            0.541720       47.756470        5.118760
  C          -11.786640       56.601450        9.841470
  C          -24.258920       58.182110        9.584710
  C          -19.370430       46.554270        9.434770
  C           -6.754630       40.142860        5.430380
  C            5.694650       38.722320        5.216930
  C            0.878220       50.164870        5.087000
  C          -12.157620       54.122210        9.385890
  C          -21.902660       59.109950        9.457370
  C          -21.331650       48.160770        9.516510
  C           -6.368360       42.655380        5.397230
  C            3.329940       37.866460        5.479460
  C            2.844100       48.592630        5.431280
  C          -12.633380       55.527000        9.523480
  C          -22.867930       57.986740        9.585700
  C          -19.886790       47.840470        9.661570
  C           -5.903910       41.248320        5.258340
  C            4.313640       38.963450        5.296180
  C            1.400700       48.865830        5.200100
  C          -12.401060       57.812210       -0.010250
  C          -25.110170       57.085400        9.679690
  C          -18.002750       46.325680        9.558920
  C           -6.237810       38.851050        5.352430
  C            6.578270       39.792200        5.112790
  C           -0.492620       50.347640        4.917650
  C          -14.517320       57.051130        9.377320
  C          -23.195210       55.587000        9.734640
  C          -17.738990       48.594350        0.136500
  C           -4.014660       39.754570        4.958370
  C            4.709890       41.349980        5.189250
  C           -0.832720       47.940950        5.002570
  C          -14.144730       59.541330        9.707660
  C          -25.564450       54.664360        9.701690
  C          -15.675890       47.079430        9.845850
  C           -4.358010       37.250470        5.204480
  C            7.093370       42.208090        5.174110
  C           -2.822070       49.510920        4.905200
  C          -13.670450       58.128450        9.690240
  C          -24.586090       55.783900        9.724490
  C          -17.131710       47.386440        9.857800
  C           -4.861500       38.650550        5.149620
  C            6.093380       41.109080        5.138270
  C           -1.357940       49.240810        4.913270
  C          -12.569150       48.723610        9.798360
  C          -17.017080       61.453900        9.636880
  C          -25.850660       51.253510        9.677700
  C           -5.916000       48.060420        5.151220
  C           -1.478260       35.359520        5.235240
  C            7.280310       45.627980        5.366560
  C           -8.797160       48.941370        7.493260
  C           -0.630000       32.403270        7.493660
  C            9.560440       47.836700        7.476030
  C           -9.607190       47.834090        7.554980
  C            0.737460       32.275980        7.501420
  C          -28.106530       49.073350        7.508190
  C           -5.042580       49.397400        6.974450
  C           -2.963960       35.415330        7.148180
  C            8.296970       44.253090        7.084170
  C          -13.341990       47.227360        8.056570
  C          -15.416250       61.560370        7.821510
  C          -26.612520       52.571960        7.790440
  C           -6.327070       49.518840        7.500030
  C           -2.371220       34.251070        7.635630
  C            9.028600       45.355230        7.523220
  C          -12.043140       47.141630        7.562650
  C          -16.000950       62.747260        7.383140
  C          -27.384590       51.500100        7.348900
  C          -10.982310       47.870190        8.134420
  C          -17.128850       63.297400        8.022320
  C          -27.381240       50.269650        8.031970
  C           -7.429220       48.885150        6.896800
  C           -1.309620       33.623240        6.956430
  C            8.871360       46.626750        6.939010
  C           -8.711300       51.015410        8.992820
  C          -20.983090       63.614440        8.991730
  C          -25.696200       46.845420        8.981870
  C           -9.672390       45.803530        6.008920
  C            2.492380       33.332200        5.971690
  C            7.178230       50.067970        5.976570
  C           -9.218040       52.262210        9.375630
  C          -21.787930       62.531760        9.356720
  C          -24.348860       46.684250        9.317990
  C           -9.189830       44.551510        5.616860
  C            3.269650       34.429590        5.592270
  C            5.842100       50.207780        5.589080
  C           -9.114920       46.489710        7.102680
  C            1.602680       33.414780        7.056890
  C            7.538220       49.275070        7.081080
  C           -9.280140       50.293030        7.928830
  C          -20.082350       63.518720        7.916980
  C          -26.081370       47.661410        7.903440
  C           -8.117530       43.992950        6.301030
  C            3.134240       35.629110        6.281020
  C            4.853470       49.533010        6.295950
  C          -10.312290       52.790190        8.698530
  C          -21.679150       61.336970        8.654920
  C          -23.378780       47.363040        8.589710
  C           -7.195930       48.194870        5.690830
  C           -0.905820       34.187580        5.730950
  C            8.026300       46.715690        5.814480
  C          -11.276050       48.631280        9.283640
  C          -17.586540       62.644230        9.184480
  C          -26.635450       50.191880        9.225500
  C           -4.846040       48.648500        5.817570
  C           -2.500170       35.968330        5.956260
  C            7.400440       44.411910        6.031820
  C          -13.597560       48.028130        9.167750
  C          -15.945770       60.909700        8.932690
  C          -25.834500       52.431270        8.935580
  C          -10.364990       50.876790        7.251630
  C          -20.019670       62.299780        7.218970
  C          -25.070270       48.339760        7.201150
  C           -8.047990       45.878580        7.784170
  C            1.503820       34.643860        7.732100
  C            6.504850       48.627670        7.782380
  C          -10.886090       52.112210        7.623680
  C          -20.803420       61.206740        7.578080
  C          -23.724820       48.204370        7.534870
  C           -7.541350       44.641390        7.391310
  C            2.253090       35.753190        7.352980
  C            5.170260       48.742360        7.398480
  O          -10.918730       54.033640        4.047300
  O          -22.590890       60.230500        3.926630
  O          -22.146380       47.143080        4.182000
  O           -7.690360       42.740290        1.057420
  O            3.997420       36.562910        0.864580
  O            3.507360       49.666700        1.055630
  O          -12.903690       53.102960        4.722210
  O          -20.787070       59.055380        4.717830
  O          -21.923570       49.414870        4.451910
  O           -5.743210       43.708890        0.325860
  O            2.172670       37.790270        0.199320
  O            3.344830       47.458750        0.455190
  O          -15.496790       59.588420        4.318100
  O          -25.025270       53.481970        4.249010
  O          -15.036560       48.307760        4.577850
  O           -3.055940       37.281800        0.855910
  O            6.507350       43.274600        0.530650
  O           -3.537290       48.494710        0.591380
  O          -13.459510       60.477680        4.908990
  O          -26.779460       54.732930        5.044090
  O          -15.332270       46.139870        5.273080
  O           -5.021080       36.347610        0.125540
  O            8.369340       42.048840        9.821760
  O           -3.224130       50.668950        9.629910
  O          -10.806370       54.055740        9.089500
  O          -22.522200       60.265240        9.017810
  O          -22.018330       47.136500        8.893560
  O           -7.651070       42.718040        5.909860
  O            3.956760       36.708480        5.904680
  O            3.506000       49.708600        5.907470
  O          -12.872770       53.141680        9.496600
  O          -20.709020       59.034410        9.693630
  O          -21.853740       49.198870        9.885780
  O           -5.705580       43.639730        5.115080
  O            2.128500       37.964710        5.303640
  O            3.383470       47.515320        5.244110
  O          -15.460510       59.635470        9.292200
  O          -24.969310       53.482560        9.302850
  O          -14.917220       48.215440        9.623240
  O           -3.010280       37.207080        5.511720
  O            6.530410       43.361720        5.683060
  O           -3.529050       48.416440        5.369650
  O          -13.558880       60.426820        0.067400
  O          -26.841380       54.696010        0.004180
  O          -15.297130       45.885840        0.008460
  O           -5.045290       36.258790        5.040510
  O            8.261200       42.109760        4.841980
  O           -3.339790       50.566220        4.585220
  H          -14.617820       54.927350       14.916920
  H          -21.230250       56.626280       14.487420
  H          -19.392050       50.150160       14.350930
  H           -3.791750       42.076450       10.178880
  H            2.855930       40.343140       10.167930
  H            1.021040       46.827290       10.341560
  H          -10.670710       56.493490       14.243400
  H          -24.623760       59.261320       14.579810
  H          -20.131620       45.955690       14.924690
  H           -7.744190       40.444920       10.610770
  H            6.208690       37.654540       10.153390
  H            1.662540       51.077090       10.291480
  H          -11.576360       58.826210       14.388960
  H          -26.152990       57.279990       14.763100
  H          -17.668680       45.563550       15.202260
  H           -6.799350       38.125490       10.475170
  H            7.770370       39.611040        9.969110
  H           -0.800090       51.441610        9.985630
  H          -15.541800       57.263340       14.944100
  H          -22.766460       54.641010       14.537500
  H          -16.923220       49.744460       14.542980
  H           -2.832870       39.754050       10.158570
  H            4.422530       42.303400       10.094450
  H           -1.457330       47.196310       10.158170
  H          -12.780110       49.314700       10.685840
  H          -17.391580       60.956270       10.527740
  H          -25.274960       51.172320       10.596730
  H           -5.656540       47.597350       14.178990
  H           -1.059160       35.864820       14.247980
  H            6.706660       45.790940       14.467510
  H           -4.361970       50.431310       12.238270
  H           -4.018190       35.606210       12.542330
  H            8.498640       43.255480       12.380340
  H          -14.114700       46.614470       12.700030
  H          -14.411330       61.295090       12.391690
  H          -26.984410       53.624630       12.481490
  H           -6.666120       50.614710       13.021310
  H           -3.006370       33.482790       13.192750
  H            9.779720       45.165600       13.196630
  H          -11.833220       46.433440       11.849290
  H          -15.421080       63.391780       11.661220
  H          -28.302030       51.698330       11.780690
  H           -8.011590       50.582170       14.558010
  H          -20.859030       64.491980       14.628200
  H          -26.494930       46.381910       14.593850
  H          -10.442650       46.319070       10.408360
  H            2.453570       32.430110       10.283420
  H            8.029510       50.523150       10.366950
  H           -8.795050       52.793020       10.224480
  H          -22.458650       62.599960       10.209150
  H          -24.058300       46.066980       10.163650
  H           -9.517500       44.117650       14.711430
  H            4.030600       34.446830       14.694710
  H            5.667690       50.874500       14.671910
  H           -7.826880       47.420470       10.377600
  H            0.206280       34.148160       10.406070
  H            7.876110       47.700540       10.282920
  H          -10.531090       49.410160       14.670910
  H          -18.524370       62.943980       14.607890
  H          -26.127180       49.196900       14.526750
  H          -10.785730       50.463100       11.268860
  H          -19.381700       62.298090       11.232320
  H          -25.221120       48.755700       11.230330
  H           -7.660460       46.494820       13.690250
  H            1.094730       34.715510       13.672730
  H            6.876660       48.017040       13.671330
  H          -11.718050       52.640200       11.965480
  H          -20.789020       60.367910       11.856860
  H          -22.886940       48.596890       11.993350
  H           -6.718270       44.318570       13.019510
  H            2.460780       36.634160       12.933400
  H            4.506640       48.240930       13.026090
  H          -14.551820       54.988710       19.036300
  H          -21.170450       56.642290       19.657750
  H          -19.447570       49.872250       10.204170
  H           -3.815940       41.992720       14.795560
  H            2.839420       40.512460       15.235710
  H            1.064630       46.837520       15.141330
  H          -10.727940       56.421240       10.008630
  H          -24.571080       59.264760       19.459630
  H          -19.949540       45.822870       19.114660
  H           -7.718730       40.379480       15.588450
  H            6.155530       37.778270       15.203360
  H            1.639080       51.097030       15.096530
  H          -11.675420       58.736260       10.199190
  H          -26.098860       57.284050       19.639830
  H          -17.486950       45.414950       19.352600
  H           -6.786400       38.059000       15.442400
  H            7.744020       39.709860       15.009410
  H           -0.828580       51.421200       14.784110
  H          -15.477910       57.312050       19.135560
  H          -22.702410       54.654580       19.725750
  H          -16.969940       49.488910       10.327420
  H           -2.859300       39.673710       14.754540
  H            4.434690       42.449780       15.154970
  H           -1.414160       47.165190       14.948580
  H          -12.847380       49.600250       15.525530
  H          -17.494020       60.822950       15.358670
  H          -24.788430       51.151580       15.228840
  H           -5.398480       47.301620       19.558390
  H           -0.726500       36.372450       19.703450
  H            6.659170       45.840090       19.422590
  H           -4.109910       49.945860       17.433990
  H           -3.676650       35.966800       17.661780
  H            8.498010       43.369730       17.537630
  H          -14.051000       46.759620       17.520210
  H          -14.481230       61.214440       17.237060
  H          -26.512530       53.584190       17.191660
  H           -6.352040       50.162390       18.372440
  H           -2.635000       33.945090       18.540790
  H            9.789870       45.289240       18.318580
  H          -11.788080       46.594220       16.648960
  H          -15.489390       63.292360       16.457210
  H          -27.859850       51.709010       16.390110
  H           -7.819720       50.659940       19.544160
  H          -20.927340       64.588990       19.559990
  H          -26.355610       46.452170       19.568350
  H          -10.352270       46.349490       15.358670
  H            2.630310       32.511470       15.317050
  H            8.035660       50.603830       15.311980
  H           -8.904990       52.799600       15.217290
  H          -22.320280       62.577940       15.214510
  H          -24.136830       46.156660       15.313070
  H           -9.458450       44.169660       19.743380
  H            3.975910       34.406190       19.544850
  H            5.736410       50.890240       19.724160
  H           -7.949980       47.839400       15.123210
  H           -0.032200       33.773070       15.116140
  H            8.045540       47.737490       15.243380
  H          -10.376590       49.227780       19.743180
  H          -18.316270       63.160210       19.696280
  H          -26.583620       49.352690       19.762390
  H          -10.729590       50.422230       16.379550
  H          -19.242210       62.282330       16.338830
  H          -25.254990       49.070730       16.336840
  H           -7.504360       46.462600       18.587490
  H            0.904050       34.811210       18.519390
  H            6.840920       48.086910       18.595950
  H          -11.639430       52.610990       17.042420
  H          -20.640850       60.350350       16.980300
  H          -22.865760       48.812920       16.932510
  H           -6.618610       44.267720       17.884200
  H            2.249350       36.771310       17.844670
  H            4.482720       48.298190       17.904610
  C          -13.969060       55.791700       14.792370
  C          -22.309560       56.751390       14.531930
  C          -18.998350       49.153100       14.533520
  C           -4.432430       41.200740       10.252950
  C            3.933500       40.200700       10.133680
  C            0.602840       47.829130       10.276850
  C          -11.728630       56.666380       14.420620
  C          -24.224390       58.251020       14.592060
  C          -19.427590       46.780870       14.862360
  C           -6.676320       40.286960       10.488410
  C            5.824490       38.670160       10.119240
  C            0.979720       50.232980       10.241300
  C          -12.136120       54.167980       14.445610
  C          -21.879730       59.182490       14.392140
  C          -21.339620       48.376940       14.390150
  C           -6.302440       42.787540       10.536800
  C            3.463690       37.783820       10.360280
  C            2.916590       48.626460       10.572240
  C          -12.599600       55.573630       14.568070
  C          -22.836330       58.053120       14.516790
  C          -19.900540       48.079490       14.613460
  C           -5.813980       41.392500       10.410360
  C            4.438920       38.891190       10.185050
  C            1.478440       48.924240       10.349820
  C          -12.228270       57.962340       14.492800
  C          -25.075630       57.153670       14.687140
  C          -18.062430       46.559920       15.014790
  C           -6.154410       38.999410       10.419610
  C            6.693350       39.752990       10.022770
  C           -0.387570       50.439330       10.076930
  C          -14.476950       57.087910       14.813880
  C          -23.163200       55.652300       14.568960
  C          -17.630580       48.926050       14.647020
  C           -3.905240       39.912940       10.235730
  C            4.804670       41.285850       10.086890
  C           -0.768400       48.036550       10.167230
  C          -14.071470       59.588640       14.632480
  C          -25.519790       54.724830       14.660950
  C          -15.707540       47.300410       14.924190
  C           -4.271160       37.409880       10.366050
  C            7.184690       42.169500       10.080610
  C           -2.724380       49.633310       10.032820
  C          -13.604920       58.178050       14.660950
  C          -24.551380       55.851210       14.650900
  C          -17.156640       47.624740       14.882480
  C           -4.767100       38.808130       10.325030
  C            6.191170       41.064340       10.042380
  C           -1.268070       49.345420       10.075640
  C          -12.611630       48.925870       14.706250
  C          -17.061480       61.386880       14.536210
  C          -25.551620       51.251040       14.461340
  C           -5.760810       47.951040       10.364760
  C           -1.276620       35.677180       10.515590
  C            7.262620       45.653080       10.294770
  C           -8.815560       49.020850       12.409510
  C           -0.582530       32.442310       12.434100
  C            9.614580       47.802190       12.410310
  C           -9.626270       47.916990       12.538640
  C          -17.773660       64.542810       12.499120
  C          -28.009770       49.058980       12.503700
  C           -5.122180       49.770440       11.830470
  C           -3.090160       35.286310       12.074890
  C            8.358540       44.230400       11.920970
  C          -13.330350       47.233260       13.128430
  C          -15.311000       61.657090       12.882420
  C          -26.794930       52.653180       12.929810
  C           -6.439090       49.861280       12.276200
  C           -2.500710       34.080500       12.443760
  C            9.081300       45.329180       12.383430
  C          -12.026170       47.138620       12.649150
  C          -15.900310       62.848680       12.467160
  C          -27.538020       51.543620       12.532570
  C          -10.991390       47.963240       13.138190
  C          -17.102990       63.320860       13.030860
  C          -27.282710       50.251180       13.038330
  C           -7.442130       48.976670       11.826790
  C           -1.262550       33.663380       11.913310
  C            8.891360       46.621410       11.851080
  C           -8.780660       51.049730       13.946710
  C          -20.877910       63.619990       13.977980
  C          -25.709690       46.817860       13.979970
  C           -9.674060       45.863500       11.028520
  C            2.495570       33.318670       10.909750
  C            7.266310       50.071860       10.996960
  C           -9.290640       52.289500       14.339080
  C          -21.689340       62.538190       14.330820
  C          -24.384320       46.704800       14.408370
  C           -9.160760       44.618390       10.654570
  C            3.286790       34.392910       10.494680
  C            5.925410       50.221860       10.635560
  C           -9.144910       46.561020       12.128160
  C            1.693210       33.411450       12.060860
  C            7.634260       49.281850       12.100480
  C           -9.305680       50.370490       12.833640
  C          -20.040140       63.558350       12.850360
  C          -26.038880       47.565960       12.835930
  C           -8.097800       44.084610       11.373590
  C            3.257050       35.575980       11.224550
  C            4.949250       49.556330       11.368720
  C          -10.346160       52.842660       13.623340
  C          -21.645370       61.383480       13.559330
  C          -23.385330       47.362780       13.698610
  C           -7.073410       48.061590       10.816760
  C           -0.701480       34.468920       10.899690
  C            7.995860       46.739040       10.767180
  C          -11.312940       48.816610       14.213730
  C          -17.637420       62.579300       14.104420
  C          -26.305760       50.153320       14.052740
  C           -4.788830       48.791810       10.898600
  C           -2.456370       36.086230       11.128180
  C            7.438840       44.407440       10.889930
  C          -13.617350       48.150590       14.137070
  C          -15.909100       60.927080       13.906490
  C          -25.787240       52.490630       13.875930
  C          -10.361880       50.969510       12.129650
  C          -20.027080       62.372220       12.100380
  C          -24.996330       48.179100       12.122680
  C           -8.085710       45.976220       12.838120
  C            1.708040       34.616060       12.782360
  C            6.615890       48.637820       12.820790
  C          -10.892100       52.196670       12.516840
  C          -20.816330       61.280690       12.446850
  C          -23.673980       48.093100       12.547700
  C           -7.548860       44.748860       12.465860
  C            2.475750       35.702890       12.371080
  C            5.277440       48.759150       12.461680
  C          -13.911790       55.836180       19.270470
  C          -22.250840       56.764710       19.645610
  C          -19.021330       48.889100       10.018190
  C           -4.448520       41.120830       14.945000
  C            3.915490       40.355810       15.198380
  C            0.633630       47.833860       15.074720
  C          -11.694720       56.678840       19.797440
  C          -24.167000       58.259500       19.540670
  C          -19.278510       46.631660       19.390740
  C           -6.662710       40.220250       15.386350
  C            5.786560       38.799710       15.172890
  C            0.970140       50.242260       15.042970
  C          -12.065700       54.199600       19.341850
  C          -21.810740       59.187340       19.413340
  C          -21.239740       48.238160       19.472470
  C           -6.276440       42.732770       15.353190
  C            3.421860       37.943850       15.435430
  C            2.936020       48.670020       15.387240
  C          -12.541460       55.604390       19.479440
  C          -22.776010       58.064140       19.541670
  C          -19.794870       47.917860       19.617530
  C           -5.812000       41.325710       15.214310
  C            4.405550       39.040840       15.252140
  C            1.492620       48.943230       15.156060
  C          -12.309140       57.889600        9.945710
  C          -25.018250       57.162790       19.635650
  C          -17.910830       46.403070       19.514890
  C           -6.145890       38.928440       15.308390
  C            6.670180       39.869590       15.068750
  C           -0.400710       50.425030       14.873610
  C          -14.425410       57.128530       19.333290
  C          -23.103290       55.664390       19.690610
  C          -17.647070       48.671740       10.092460
  C           -3.922750       39.831960       14.914330
  C            4.801800       41.427370       15.145210
  C           -0.740800       48.018340       14.958540
  C          -14.052810       59.618730       19.663630
  C          -25.472530       54.741750       19.657650
  C          -15.583970       47.156820       19.801820
  C           -4.266090       37.327860       15.160450
  C            7.185290       42.285480       15.130080
  C           -2.730160       49.588310       14.861170
  C          -13.578530       58.205840       19.646210
  C          -24.494170       55.861290       19.680450
  C          -17.039790       47.463830       19.813760
  C           -4.769580       38.727940       15.105590
  C            6.185300       41.186470       15.094240
  C           -1.266020       49.318200       14.869230
  C          -12.477240       48.801010       19.754330
  C          -16.925170       61.531290       19.592840
  C          -25.758740       51.330900       19.633660
  C           -5.824080       48.137820       15.107180
  C           -1.386340       35.436910       15.191210
  C            7.372230       45.705380       15.322530
  C           -8.705240       49.018760       17.449220
  C           -0.538080       32.480660       17.449620
  C            9.652360       47.914090       17.432000
  C           -9.515270       47.911480       17.510950
  C            0.829380       32.353370       17.457390
  C          -28.014620       49.150740       17.464160
  C           -4.950660       49.474790       16.930420
  C           -2.872040       35.492730       17.104150
  C            8.388890       44.330480       17.040130
  C          -13.250070       47.304750       18.012530
  C          -15.324330       61.637760       17.777470
  C          -26.520600       52.649350       17.746410
  C           -6.235160       49.596230       17.455990
  C           -2.279300       34.328460       17.591590
  C            9.120510       45.432630       17.479190
  C          -11.951220       47.219020       17.518620
  C          -15.909040       62.824650       17.339110
  C          -27.292670       51.577490       17.304860
  C          -10.890400       47.947580       18.090390
  C          -17.036930       63.374790       17.978280
  C          -27.289320       50.347040       17.987940
  C           -7.337310       48.962540       16.852760
  C           -1.217700       33.700630       16.912400
  C            8.963280       46.704140       16.894970
  C           -8.619380       51.092810       18.948790
  C          -20.891170       63.691830       18.947690
  C          -25.604290       46.922810       18.937840
  C           -9.580470       45.880920       15.964890
  C            2.584300       33.409590       15.927650
  C            7.270150       50.145360       15.932530
  C           -9.126120       52.339600       19.331600
  C          -21.696010       62.609150       19.312680
  C          -24.256940       46.761640       19.273950
  C           -9.097910       44.628900       15.572820
  C            3.361560       34.506990       15.548230
  C            5.934020       50.285170       15.545040
  C           -9.023010       46.567100       17.058650
  C            1.694600       33.492170       17.012850
  C            7.630140       49.352460       17.037050
  C           -9.188220       50.370420       17.884800
  C          -19.990430       63.596110       17.872950
  C          -25.989450       47.738800       17.859410
  C           -8.025620       44.070340       16.257000
  C            3.226150       35.706510       16.236980
  C            4.945390       49.610410       16.251920
  C          -10.220380       52.867580       18.654490
  C          -21.587230       61.414370       18.610880
  C          -23.286860       47.440440       18.545670
  C           -7.104010       48.272260       15.646790
  C           -0.813900       34.264970       15.686920
  C            8.118220       46.793090       15.770450
  C          -11.184140       48.708670       19.239600
  C          -17.494620       62.721620       19.140440
  C          -26.543530       50.269270       19.181460
  C           -4.754120       48.725890       15.773530
  C           -2.408250       36.045720       15.912220
  C            7.492360       44.489300       15.987790
  C          -13.505640       48.105520       19.123720
  C          -15.853850       60.987090       18.888660
  C          -25.742580       52.508660       18.891540
  C          -10.273070       50.954180       17.207590
  C          -19.927750       62.377170       17.174940
  C          -24.978350       48.417150       17.157110
  C           -7.956070       45.955970       17.740140
  C            1.595740       34.721250       17.688070
  C            6.596770       48.705060       17.738340
  C          -10.794170       52.189600       17.579650
  C          -20.711500       61.284130       17.534050
  C          -23.632900       48.281760       17.490840
  C           -7.449440       44.718780       17.347270
  C            2.345010       35.830580       17.308940
  C            5.262180       48.819750       17.354440
  O          -10.826810       54.111030       14.003260
  O          -22.498970       60.307890       13.882600
  O          -22.054460       47.220470       14.137970
  O           -7.598440       42.817680       11.013390
  O            4.089340       36.640300       10.820540
  O            3.599270       49.744090       11.011600
  O          -12.811770       53.180350       14.678180
  O          -20.695150       59.132770       14.673800
  O          -21.831650       49.492260       14.407870
  O           -5.651290       43.786280       10.281820
  O            2.264590       37.867660       10.155280
  O            3.436750       47.536150       10.411150
  O          -15.404870       59.665810       14.274070
  O          -24.933350       53.559360       14.204970
  O          -14.944640       48.385150       14.533820
  O           -2.964020       37.359190       10.811880
  O            6.599260       43.351990       10.486620
  O           -3.445380       48.572110       10.547350
  O          -13.367590       60.555070       14.864950
  O          -26.687540       54.810320       15.000050
  O          -15.240350       46.217260       15.229040
  O           -4.929160       36.425000       10.081510
  O            8.461260       42.126240       19.777720
  O           -3.132210       50.746340       19.585870
  O          -10.714450       54.133140       19.045460
  O          -22.430280       60.342630       18.973780
  O          -21.926410       47.213890       18.849530
  O           -7.559160       42.795430       15.865830
  O            4.048680       36.785870       15.860650
  O            3.597910       49.786000       15.863440
  O          -12.780850       53.219070       19.452560
  O          -20.617100       59.111810       19.649590
  O          -21.761820       49.276260       19.841740
  O           -5.613660       43.717120       15.071040
  O            2.220420       38.042100       15.259610
  O            3.475380       47.592720       15.200070
  O          -15.368590       59.712860       19.248170
  O          -24.877390       53.559960       19.258820
  O          -14.825300       48.292830       19.579200
  O           -2.918360       37.284470       15.467690
  O            6.622330       43.439110       15.639030
  O           -3.437130       48.493830       15.325620
  O          -13.466960       60.504220       10.023370
  O          -26.749460       54.773400        9.960150
  O          -15.205210       45.963230        9.964430
  O           -4.953370       36.336180       14.996470
  O            8.353120       42.187150       14.797950
  O           -3.247870       50.643620       14.541180
  H          -14.525900       55.004740       24.872890
  H          -21.138330       56.703670       24.443390
  H          -19.300130       50.227550       24.306890
  H           -3.699830       42.153840       20.134840
  H            2.947850       40.420530       20.123890
  H            1.112960       46.904690       20.297520
  H          -10.578790       56.570880       24.199370
  H          -24.531840       59.338710       24.535780
  H          -20.039710       46.033080       24.880650
  H           -7.652270       40.522310       20.566730
  H            6.300600       37.731930       20.109360
  H            1.754460       51.154480       20.247450
  H          -11.484440       58.903600       24.344920
  H          -26.061080       57.357380       24.719070
  H          -17.576760       45.640940       25.158230
  H           -6.707430       38.202880       20.431130
  H            7.862280       39.688430       19.925070
  H           -0.708170       51.519000       19.941600
  H          -15.449880       57.340740       24.900070
  H          -22.674540       54.718400       24.493470
  H          -16.831300       49.821850       24.498940
  H           -2.740950       39.831440       20.114530
  H            4.514440       42.380790       20.050420
  H           -1.365410       47.273700       20.114140
  H          -12.688190       49.392090       20.641800
  H          -17.299670       61.033660       20.483700
  H          -25.183040       51.249710       20.552700
  H           -5.564620       47.674740       24.134950
  H           -0.967250       35.942210       24.203950
  H            6.798580       45.868330       24.423480
  H           -4.270050       50.508700       22.194240
  H           -3.926270       35.683600       22.498290
  H            8.590560       43.332880       22.336310
  H          -14.022780       46.691860       22.655990
  H          -14.319410       61.372480       22.347660
  H          -26.892490       53.702020       22.437460
  H           -6.574200       50.692110       22.977270
  H           -2.914450       33.560180       23.148710
  H            9.871640       45.242990       23.152600
  H          -11.741310       46.510830       21.805260
  H          -15.329170       63.469170       21.617190
  H          -28.210120       51.775720       21.736660
  H           -7.919670       50.659560       24.513980
  H          -20.767110       64.569370       24.584160
  H          -26.403010       46.459300       24.549820
  H          -10.350730       46.396460       20.364330
  H            2.545490       32.507500       20.239380
  H            8.121430       50.600540       20.322910
  H           -8.703130       52.870420       20.180440
  H          -22.366740       62.677360       20.165110
  H          -23.966380       46.144370       20.119610
  H           -9.425580       44.195040       24.667400
  H            4.122520       34.524220       24.650670
  H            5.759610       50.951890       24.627870
  H           -7.734960       47.497860       20.333560
  H            0.298200       34.225550       20.362040
  H            7.968030       47.777930       20.238880
  H          -10.439170       49.487550       24.626880
  H          -18.432450       63.021370       24.563850
  H          -26.035260       49.274290       24.482710
  H          -10.693810       50.540500       21.224820
  H          -19.289780       62.375480       21.188280
  H          -25.129200       48.833090       21.186290
  H           -7.568540       46.572210       23.646210
  H            1.186650       34.792900       23.628690
  H            6.968580       48.094430       23.627300
  H          -11.626130       52.717590       21.921440
  H          -20.697100       60.445300       21.812820
  H          -22.795030       48.674280       21.949320
  H           -6.626350       44.395960       22.975480
  H            2.552700       36.711550       22.889360
  H            4.598560       48.318320       22.982050
  H          -14.459900       55.066100       28.992270
  H          -21.078530       56.719680       29.613720
  H          -19.355660       49.949640       20.160130
  H           -3.724020       42.070110       24.751520
  H            2.931340       40.589850       25.191680
  H            1.156550       46.914910       25.097300
  H          -10.636020       56.498630       19.964600
  H          -24.479160       59.342150       29.415600
  H          -19.857620       45.900260       29.070620
  H           -7.626810       40.456870       25.544420
  H            6.247450       37.855660       25.159320
  H            1.731000       51.174430       25.052490
  H          -11.583500       58.813650       20.155150
  H          -26.006940       57.361440       29.595800
  H          -17.395030       45.492340       29.308570
  H           -6.694480       38.136390       25.398360
  H            7.835930       39.787260       24.965380
  H           -0.736660       51.498590       24.740080
  H          -15.385990       57.389440       29.091530
  H          -22.610490       54.731980       29.681720
  H          -16.878020       49.566300       20.283390
  H           -2.767380       39.751100       24.710510
  H            4.526610       42.527170       25.110930
  H           -1.322240       47.242590       24.904550
  H          -12.755460       49.677640       25.481500
  H          -17.402100       60.900340       25.314630
  H          -24.696510       51.228970       25.184810
  H           -5.306560       47.379010       29.514360
  H           -0.634580       36.449840       29.659420
  H            6.751090       45.917480       29.378560
  H           -4.017990       50.023250       27.389950
  H           -3.584730       36.044190       27.617750
  H            8.589920       43.447120       27.493600
  H          -13.959080       46.837010       27.476170
  H          -14.389310       61.291830       27.193030
  H          -26.420610       53.661580       27.147630
  H           -6.260120       50.239790       28.328400
  H           -2.543080       34.022480       28.496760
  H            9.881790       45.366630       28.274540
  H          -11.696160       46.671620       26.604930
  H          -15.397470       63.369760       26.413170
  H          -27.767940       51.786400       26.346070
  H           -7.727800       50.737330       29.500120
  H          -20.835430       64.666380       29.515950
  H          -26.263690       46.529560       29.524310
  H          -10.260350       46.426880       25.314630
  H            2.722230       32.588860       25.273020
  H            8.127580       50.681220       25.267940
  H           -8.813070       52.876990       25.173260
  H          -22.228360       62.655330       25.170470
  H          -24.044910       46.234050       25.269040
  H           -9.366530       44.247050       29.699340
  H            4.067830       34.483580       29.500820
  H            5.828330       50.967630       29.680130
  H           -7.858070       47.916790       25.079180
  H            0.059720       33.850460       25.072110
  H            8.137460       47.814880       25.199340
  H          -10.284670       49.305170       29.699140
  H          -18.224360       63.237600       29.652250
  H          -26.491700       49.430080       29.718360
  H          -10.637670       50.499620       26.335520
  H          -19.150290       62.359730       26.294800
  H          -25.163070       49.148120       26.292810
  H           -7.412440       46.539990       28.543450
  H            0.995970       34.888600       28.475350
  H            6.932840       48.164310       28.551920
  H          -11.547510       52.688390       26.998390
  H          -20.548930       60.427740       26.936260
  H          -22.773840       48.890310       26.888470
  H           -6.526690       44.345110       27.840160
  H            2.341260       36.848700       27.800640
  H            4.574640       48.375580       27.860570
  C          -13.877140       55.869090       24.748340
  C          -22.217650       56.828790       24.487890
  C          -18.906430       49.230500       24.489480
  C           -4.340520       41.278130       20.208920
  C            4.025420       40.278090       20.089640
  C            0.694760       47.906520       20.232810
  C          -11.636720       56.743770       24.376580
  C          -24.132470       58.328410       24.548020
  C          -19.335670       46.858260       24.818330
  C           -6.584400       40.364350       20.444370
  C            5.916410       38.747550       20.075210
  C            1.071640       50.310380       20.197270
  C          -12.044200       54.245380       24.401570
  C          -21.787820       59.259880       24.348110
  C          -21.247700       48.454330       24.346120
  C           -6.210520       42.864930       20.492760
  C            3.555610       37.861210       20.316240
  C            3.008510       48.703850       20.528200
  C          -12.507680       55.651020       24.524030
  C          -22.744410       58.130520       24.472760
  C          -19.808620       48.156880       24.569430
  C           -5.722060       41.469890       20.366320
  C            4.530840       38.968580       20.141020
  C            1.570360       49.001630       20.305790
  C          -12.136350       58.039740       24.448760
  C          -24.983720       57.231060       24.643100
  C          -17.970510       46.637310       24.970750
  C           -6.062500       39.076800       20.375580
  C            6.785260       39.830380       19.978730
  C           -0.295660       50.516720       20.032890
  C          -14.385030       57.165310       24.769840
  C          -23.071280       55.729690       24.524930
  C          -17.538660       49.003440       24.602980
  C           -3.813320       39.990340       20.191690
  C            4.896590       41.363240       20.042850
  C           -0.676480       48.113940       20.123200
  C          -13.979550       59.666040       24.588450
  C          -25.427870       54.802220       24.616920
  C          -15.615620       47.377800       24.880160
  C           -4.179240       37.487280       20.322020
  C            7.276610       42.246890       20.036580
  C           -2.632470       49.710700       19.988790
  C          -13.513000       58.255440       24.616920
  C          -24.459460       55.928610       24.606860
  C          -17.064720       47.702140       24.838440
  C           -4.675180       38.885520       20.281000
  C            6.283090       41.141730       19.998350
  C           -1.176150       49.422810       20.031600
  C          -12.519720       49.003260       24.662220
  C          -16.969560       61.464270       24.492170
  C          -25.459700       51.328430       24.417300
  C           -5.668890       48.028430       20.320720
  C           -1.184710       35.754580       20.471550
  C            7.354530       45.730470       20.250730
  C           -8.723640       49.098240       22.365480
  C           -0.490620       32.519710       22.390070
  C            9.706500       47.879580       22.366270
  C           -9.534350       47.994390       22.494610
  C          -17.681740       64.620200       22.455080
  C          -27.917860       49.136370       22.459660
  C           -5.030260       49.847830       21.786440
  C           -2.998250       35.363700       22.030860
  C            8.450460       44.307790       21.876940
  C          -13.238430       47.310650       23.084400
  C          -15.219080       61.734480       22.838390
  C          -26.703010       52.730570       22.885780
  C           -6.347170       49.938670       22.232170
  C           -2.408790       34.157890       22.399730
  C            9.173220       45.406570       22.339390
  C          -11.934250       47.216010       22.605120
  C          -15.808400       62.926070       22.423120
  C          -27.446100       51.621010       22.488530
  C          -10.899470       48.040640       23.094150
  C          -17.011070       63.398250       22.986830
  C          -27.190790       50.328570       22.994300
  C           -7.350210       49.054060       21.782760
  C           -1.170640       33.740770       21.869270
  C            8.983270       46.698800       21.807050
  C           -8.688740       51.127120       23.902680
  C          -20.785990       63.697380       23.933940
  C          -25.617770       46.895250       23.935930
  C           -9.582150       45.940890       20.984490
  C            2.587490       33.396070       20.865710
  C            7.358230       50.149250       20.952930
  C           -9.198720       52.366900       24.295040
  C          -21.597430       62.615580       24.286780
  C          -24.292410       46.782190       24.364340
  C           -9.068840       44.695780       20.610540
  C            3.378710       34.470300       20.450650
  C            6.017330       50.299250       20.591520
  C           -9.052990       46.638410       22.084120
  C            1.785130       33.488840       22.016820
  C            7.726180       49.359240       22.056440
  C           -9.213770       50.447880       22.789600
  C          -19.948220       63.635750       22.806330
  C          -25.946960       47.643350       22.791890
  C           -8.005880       44.162000       21.329560
  C            3.348970       35.653370       21.180520
  C            5.041160       49.633720       21.324680
  C          -10.254250       52.920050       23.579310
  C          -21.553450       61.460870       23.515290
  C          -23.293410       47.440170       23.654580
  C           -6.981490       48.138980       20.772720
  C           -0.609560       34.546310       20.855660
  C            8.087780       46.816430       20.723140
  C          -11.221020       48.894000       24.169700
  C          -17.545500       62.656700       24.060380
  C          -26.213850       50.230710       24.008710
  C           -4.696910       48.869200       20.854560
  C           -2.364450       36.163630       21.084150
  C            7.530750       44.484830       20.845900
  C          -13.525430       48.227980       24.093040
  C          -15.817180       61.004470       23.862460
  C          -25.695320       52.568020       23.831890
  C          -10.269960       51.046910       22.085620
  C          -19.935160       62.449610       22.056350
  C          -24.904410       48.256490       22.078650
  C           -7.993790       46.053610       22.794080
  C            1.799960       34.693450       22.738330
  C            6.707810       48.715210       22.776760
  C          -10.800180       52.274060       22.472800
  C          -20.724410       61.358080       22.402810
  C          -23.582060       48.170490       22.503670
  C           -7.456940       44.826250       22.421830
  C            2.567670       35.780280       22.327050
  C            5.369360       48.836540       22.417650
  C          -13.819870       55.913580       29.226430
  C          -22.158920       56.842100       29.601570
  C          -18.929410       48.966490       19.974150
  C           -4.356600       41.198220       24.900960
  C            4.007410       40.433200       25.154340
  C            0.725550       47.911250       25.030690
  C          -11.602810       56.756230       29.753400
  C          -24.075080       58.336890       29.496640
  C          -19.186590       46.709050       29.346700
  C           -6.570790       40.297640       25.342310
  C            5.878480       38.877100       25.128860
  C            1.062060       50.319650       24.998930
  C          -11.973790       54.276990       29.297820
  C          -21.718820       59.264740       29.369300
  C          -21.147820       48.315550       29.428440
  C           -6.184520       42.810160       25.309160
  C            3.513780       38.021240       25.391390
  C            3.027930       48.747410       25.343210
  C          -12.449550       55.681780       29.435410
  C          -22.684100       58.141530       29.497630
  C          -19.702960       47.995250       29.573500
  C           -5.720080       41.403100       25.170270
  C            4.497470       39.118230       25.208100
  C            1.584540       49.020620       25.112030
  C          -12.217230       57.966990       19.901680
  C          -24.926330       57.240190       29.591620
  C          -17.818910       46.480470       29.470850
  C           -6.053980       39.005830       25.264360
  C            6.762100       39.946980       25.024720
  C           -0.308790       50.502430       24.829580
  C          -14.333490       57.205920       29.289250
  C          -23.011370       55.741780       29.646570
  C          -17.555150       48.749130       20.048430
  C           -3.830830       39.909350       24.870300
  C            4.893720       41.504760       25.101180
  C           -0.648880       48.095730       24.914500
  C          -13.960890       59.696120       29.619590
  C          -25.380610       54.819140       29.613620
  C          -15.492050       47.234210       29.757780
  C           -4.174180       37.405260       25.116410
  C            7.277210       42.362870       25.086040
  C           -2.638240       49.665700       24.817130
  C          -13.486610       58.283230       29.602170
  C          -24.402260       55.938690       29.636420
  C          -16.947870       47.541230       29.769730
  C           -4.677660       38.805330       25.061550
  C            6.277220       41.263860       25.050200
  C           -1.174110       49.395590       24.825200
  C          -12.385320       48.878400       29.710290
  C          -16.833250       61.608680       29.548810
  C          -25.666830       51.408290       29.589630
  C           -5.732160       48.215210       25.063150
  C           -1.294420       35.514300       25.147170
  C            7.464150       45.782770       25.278490
  C           -8.613320       49.096150       27.405190
  C           -0.446160       32.558050       27.405590
  C            9.744280       47.991480       27.387960
  C           -9.423350       47.988870       27.466910
  C            0.921290       32.430760       27.413350
  C          -27.922700       49.228130       27.420120
  C           -4.858740       49.552180       26.886380
  C           -2.780130       35.570120       27.060110
  C            8.480810       44.407870       26.996100
  C          -13.158150       47.382140       27.968500
  C          -15.232410       61.715150       27.733440
  C          -26.428680       52.726740       27.702370
  C           -6.143240       49.673620       27.411960
  C           -2.187380       34.405850       27.547560
  C            9.212430       45.510020       27.435150
  C          -11.859300       47.296420       27.474580
  C          -15.817120       62.902040       27.295070
  C          -27.200760       51.654880       27.260830
  C          -10.798480       48.024970       28.046350
  C          -16.945010       63.452180       27.934250
  C          -27.197400       50.424430       27.943900
  C           -7.245390       49.039930       26.808730
  C           -1.125780       33.778020       26.868360
  C            9.055200       46.781530       26.850940
  C           -8.527460       51.170200       28.904750
  C          -20.799260       63.769220       28.903660
  C          -25.512370       47.000200       28.893800
  C           -9.488550       45.958310       25.920850
  C            2.676220       33.486980       25.883620
  C            7.362070       50.222750       25.888500
  C           -9.034200       52.416990       29.287560
  C          -21.604090       62.686540       29.268650
  C          -24.165020       46.839030       29.229920
  C           -9.005990       44.706290       25.528790
  C            3.453480       34.584380       25.504200
  C            6.025940       50.362560       25.501010
  C           -8.931090       46.644500       27.014610
  C            1.786520       33.569570       26.968820
  C            7.722060       49.429860       26.993010
  C           -9.096300       50.447810       27.840760
  C          -19.898510       63.673500       27.828910
  C          -25.897530       47.816190       27.815370
  C           -7.933700       44.147730       26.212960
  C            3.318070       35.783900       26.192950
  C            5.037300       49.687800       26.207880
  C          -10.128460       52.944970       28.610460
  C          -21.495310       61.491760       28.566850
  C          -23.194940       47.517830       28.501640
  C           -7.012090       48.349650       25.602760
  C           -0.721990       34.342370       25.642880
  C            8.210140       46.870480       25.726410
  C          -11.092220       48.786060       29.195570
  C          -17.402710       62.799010       29.096410
  C          -26.451610       50.346660       29.137430
  C           -4.662200       48.803280       25.729500
  C           -2.316330       36.123120       25.868190
  C            7.584270       44.566690       25.943750
  C          -13.413720       48.182920       29.079680
  C          -15.761930       61.064480       28.844620
  C          -25.650670       52.586050       28.847510
  C          -10.181150       51.031570       27.163560
  C          -19.835830       62.454560       27.130900
  C          -24.886440       48.494540       27.113080
  C           -7.864160       46.033370       27.696100
  C            1.687660       34.798640       27.644030
  C            6.688690       48.782450       27.694310
  C          -10.702250       52.266990       27.535610
  C          -20.619590       61.361520       27.490010
  C          -23.540980       48.359150       27.446800
  C           -7.357520       44.796170       27.303240
  C            2.436930       35.907970       27.264910
  C            5.354090       48.897140       27.310410
  O          -10.734890       54.188420       23.959230
  O          -22.407050       60.385280       23.838560
  O          -21.962540       47.297860       24.093930
  O           -7.506520       42.895070       20.969350
  O            4.181260       36.717690       20.776510
  O            3.691190       49.821480       20.967560
  O          -12.719850       53.257740       24.634140
  O          -20.603230       59.210160       24.629760
  O          -21.739730       49.569650       24.363840
  O           -5.559370       43.863670       20.237790
  O            2.356510       37.945060       20.111250
  O            3.528660       47.613540       20.367120
  O          -15.312950       59.743200       24.230030
  O          -24.841430       53.636750       24.160940
  O          -14.852720       48.462540       24.489780
  O           -2.872110       37.436580       20.767840
  O            6.691180       43.429380       20.442580
  O           -3.353460       48.649500       20.503310
  O          -13.275680       60.632460       24.820920
  O          -26.595630       54.887710       24.956020
  O          -15.148440       46.294660       25.185010
  O           -4.837240       36.502390       20.037470
  O            8.553180       42.203630       29.733690
  O           -3.040300       50.823730       29.541840
  O          -10.622530       54.210530       29.001430
  O          -22.338360       60.420020       28.929740
  O          -21.834500       47.291290       28.805490
  O           -7.467240       42.872830       25.821790
  O            4.140600       36.863270       25.816610
  O            3.689830       49.863390       25.819400
  O          -12.688930       53.296470       29.408530
  O          -20.525180       59.189200       29.605560
  O          -21.669910       49.353650       29.797710
  O           -5.521740       43.794510       25.027010
  O            2.312340       38.119500       25.215570
  O            3.567300       47.670110       25.156040
  O          -15.276670       59.790250       29.204130
  O          -24.785480       53.637350       29.214780
  O          -14.733390       48.370220       29.535170
  O           -2.826440       37.361860       25.423650
  O            6.714250       43.516510       25.594990
  O           -3.345210       48.571220       25.281580
  O          -13.375040       60.581610       19.979330
  O          -26.657540       54.850790       19.916110
  O          -15.113290       46.040630       19.920390
  O           -4.861460       36.413570       24.952440
  O            8.445040       42.264540       24.753910
  O           -3.155960       50.721010       24.497150
  H          -14.433980       55.082130       34.828850
  H          -21.046410       56.781060       34.399350
  H          -19.208220       50.304940       34.262860
  H           -3.607910       42.231230       30.090810
  H            3.039770       40.497930       30.079860
  H            1.204880       46.982080       30.253490
  H          -10.486870       56.648270       34.155330
  H          -24.439920       59.416100       34.491740
  H          -19.947790       46.110470       34.836620
  H           -7.560350       40.599700       30.522700
  H            6.392520       37.809330       30.065320
  H            1.846380       51.231880       30.203410
  H          -11.392520       58.980990       34.300890
  H          -25.969160       57.434770       34.675030
  H          -17.484840       45.718340       35.114190
  H           -6.615510       38.280270       30.387100
  H            7.954200       39.765820       29.881040
  H           -0.616250       51.596390       29.897560
  H          -15.357960       57.418130       34.856030
  H          -22.582620       54.795800       34.449430
  H          -16.739380       49.899240       34.454910
  H           -2.649030       39.908830       30.070500
  H            4.606360       42.458190       30.006380
  H           -1.273490       47.351090       30.070100
  H          -12.596270       49.469480       30.597770
  H          -17.207750       61.111050       30.439670
  H          -25.091120       51.327100       30.508660
  H           -5.472700       47.752130       34.090920
  H           -0.875330       36.019600       34.159910
  H            6.890500       45.945720       34.379440
  H           -4.178130       50.586090       32.150200
  H           -3.834350       35.761000       32.454260
  H            8.682470       43.410270       32.292270
  H          -13.930860       46.769250       32.611960
  H          -14.227490       61.449880       32.303620
  H          -26.800570       53.779410       32.393420
  H           -6.482290       50.769500       32.933240
  H           -2.822530       33.637570       33.104680
  H            9.963550       45.320380       33.108560
  H          -11.649390       46.588220       31.761220
  H          -15.237250       63.546560       31.573150
  H          -28.118200       51.853110       31.692620
  H           -7.827750       50.736950       34.469940
  H          -20.675200       64.646760       34.540130
  H          -26.311090       46.536690       34.505780
  H          -10.258810       46.473850       30.320290
  H            2.637410       32.584890       30.195350
  H            8.213350       50.677940       30.278880
  H           -8.611220       52.947810       30.136410
  H          -22.274820       62.754750       30.121070
  H          -23.874460       46.221770       30.075580
  H           -9.333660       44.272430       34.623360
  H            4.214440       34.601610       34.606640
  H            5.851530       51.029280       34.583840
  H           -7.643050       47.575250       30.289530
  H            0.390120       34.302940       30.318000
  H            8.059950       47.855320       30.194850
  H          -10.347250       49.564940       34.582840
  H          -18.340530       63.098770       34.519820
  H          -25.943340       49.351680       34.438680
  H          -10.601900       50.617890       31.180790
  H          -19.197860       62.452870       31.144250
  H          -25.037280       48.910480       31.142260
  H           -7.476620       46.649600       33.602180
  H            1.278570       34.870290       33.584660
  H            7.060500       48.171820       33.583260
  H          -11.534220       52.794980       31.877410
  H          -20.605180       60.522690       31.768790
  H          -22.703110       48.751670       31.905280
  H           -6.534430       44.473350       32.931440
  H            2.644620       36.788940       32.845330
  H            4.690480       48.395710       32.938020
  H          -14.367980       55.143490       38.948230
  H          -20.986610       56.797070       39.569680
  H          -19.263740       50.027040       30.116100
  H           -3.632110       42.147510       34.707490
  H            3.023260       40.667250       35.147640
  H            1.248470       46.992310       35.053260
  H          -10.544100       56.576020       29.920560
  H          -24.387240       59.419540       39.371560
  H          -19.765710       45.977650       39.026590
  H           -7.534890       40.534260       35.500380
  H            6.339370       37.933050       35.115290
  H            1.822920       51.251820       35.008460
  H          -11.491580       58.891040       30.111120
  H          -25.915030       57.438830       39.551760
  H          -17.303120       45.569730       39.264530
  H           -6.602570       38.213780       35.354330
  H            7.927850       39.864650       34.921340
  H           -0.644750       51.575980       34.696040
  H          -15.294070       57.466830       39.047490
  H          -22.518570       54.809370       39.637680
  H          -16.786100       49.643690       30.239350
  H           -2.675460       39.828490       34.666470
  H            4.618530       42.604560       35.066900
  H           -1.230320       47.319980       34.860510
  H          -12.663540       49.755030       35.437460
  H          -17.310180       60.977730       35.270600
  H          -24.604590       51.306360       35.140770
  H           -5.214640       47.456400       39.470320
  H           -0.542660       36.527230       39.615380
  H            6.843010       45.994880       39.334520
  H           -3.926070       50.100650       37.345920
  H           -3.492820       36.121580       37.573710
  H            8.681840       43.524510       37.449560
  H          -13.867160       46.914400       37.432140
  H          -14.297400       61.369220       37.148990
  H          -26.328690       53.738970       37.103590
  H           -6.168210       50.317180       38.284370
  H           -2.451160       34.099880       38.452720
  H            9.973710       45.444020       38.230510
  H          -11.604240       46.749010       36.560890
  H          -15.305560       63.447150       36.369140
  H          -27.676020       51.863790       36.302040
  H           -7.635880       50.814720       39.456090
  H          -20.743510       64.743770       39.471920
  H          -26.171770       46.606950       39.480280
  H          -10.168430       46.504270       35.270600
  H            2.814150       32.666250       35.228980
  H            8.219490       50.758610       35.223910
  H           -8.721160       52.954380       35.129220
  H          -22.136440       62.732720       35.126440
  H          -23.952990       46.311440       35.225000
  H           -9.274610       44.324440       39.655310
  H            4.159750       34.560970       39.456780
  H            5.920240       51.045020       39.636090
  H           -7.766150       47.994180       35.035140
  H            0.151640       33.927850       35.028070
  H            8.229370       47.892270       35.155310
  H          -10.192760       49.382560       39.655110
  H          -18.132440       63.314990       39.608210
  H          -26.399780       49.507480       39.674320
  H          -10.545750       50.577010       36.291480
  H          -19.058380       62.437120       36.250760
  H          -25.071160       49.225510       36.248770
  H           -7.320520       46.617380       38.499420
  H            1.087880       34.966000       38.431320
  H            7.024760       48.241700       38.507880
  H          -11.455600       52.765780       36.954350
  H          -20.457010       60.505130       36.892230
  H          -22.681920       48.967710       36.844440
  H           -6.434770       44.422510       37.796130
  H            2.433180       36.926100       37.756600
  H            4.666560       48.452980       37.816540
  C          -13.785230       55.946490       34.704300
  C          -22.125730       56.906180       34.443860
  C          -18.814510       49.307890       34.445450
  C           -4.248600       41.355520       30.164880
  C            4.117340       40.355480       30.045610
  C            0.786680       47.983910       30.188780
  C          -11.544800       56.821170       34.332550
  C          -24.040550       58.405800       34.503990
  C          -19.243750       46.935650       34.774290
  C           -6.492480       40.441740       30.400340
  C            6.008330       38.824940       30.031170
  C            1.163560       50.387770       30.153230
  C          -11.952280       54.322770       34.357540
  C          -21.695900       59.337270       34.304070
  C          -21.155780       48.531730       34.302080
  C           -6.118610       42.942320       30.448730
  C            3.647530       37.938600       30.272210
  C            3.100420       48.781250       30.484170
  C          -12.415770       55.728410       34.480000
  C          -22.652490       58.207910       34.428720
  C          -19.716700       48.234270       34.525390
  C           -5.630150       41.547280       30.322280
  C            4.622760       39.045970       30.096980
  C            1.662280       49.079020       30.261750
  C          -12.044430       58.117130       34.404730
  C          -24.891800       57.308450       34.599070
  C          -17.878590       46.714700       34.926720
  C           -5.970580       39.154190       30.331540
  C            6.877180       39.907770       29.934700
  C           -0.203740       50.594110       29.988860
  C          -14.293110       57.242700       34.725810
  C          -22.979360       55.807080       34.480890
  C          -17.446740       49.080830       34.558950
  C           -3.721400       40.067730       30.147660
  C            4.988500       41.440640       29.998820
  C           -0.584560       48.191330       30.079160
  C          -13.887630       59.743430       34.544410
  C          -25.335950       54.879610       34.572880
  C          -15.523700       47.455190       34.836120
  C           -4.087320       37.564670       30.277980
  C            7.368530       42.324280       29.992540
  C           -2.540550       49.788100       29.944750
  C          -13.421080       58.332830       34.572880
  C          -24.367550       56.006000       34.562830
  C          -16.972800       47.779530       34.794400
  C           -4.583260       38.962910       30.236960
  C            6.375010       41.219120       29.954310
  C           -1.084230       49.500200       29.987570
  C          -12.427800       49.080650       34.618180
  C          -16.877640       61.541670       34.448140
  C          -25.367780       51.405820       34.373270
  C           -5.576970       48.105820       30.276690
  C           -1.092790       35.831970       30.427520
  C            7.446450       45.807860       30.206700
  C           -8.631730       49.175640       32.321440
  C           -0.398700       32.597100       32.346030
  C            9.798410       47.956970       32.322240
  C           -9.442430       48.071780       32.450570
  C          -17.589820       64.697590       32.411050
  C          -27.825940       49.213770       32.415630
  C           -4.938350       49.925230       31.742400
  C           -2.906330       35.441090       31.986820
  C            8.542370       44.385180       31.832900
  C          -13.146510       47.388040       33.040360
  C          -15.127160       61.811880       32.794350
  C          -26.611090       52.807960       32.841740
  C           -6.255250       50.016060       32.188130
  C           -2.316870       34.235280       32.355690
  C            9.265140       45.483960       32.295360
  C          -11.842330       47.293400       32.561080
  C          -15.716480       63.003460       32.379090
  C          -27.354190       51.698400       32.444500
  C          -10.807550       48.118030       33.050120
  C          -16.919150       63.475640       32.942790
  C          -27.098870       50.405960       32.950260
  C           -7.258300       49.131450       31.738720
  C           -1.078720       33.818160       31.825240
  C            9.075190       46.776190       31.763010
  C           -8.596820       51.204510       33.858640
  C          -20.694070       63.774780       33.889910
  C          -25.525850       46.972640       33.891900
  C           -9.490230       46.018290       30.940450
  C            2.679410       33.473460       30.821680
  C            7.450150       50.226640       30.908890
  C           -9.106800       52.444290       34.251010
  C          -21.505510       62.692970       34.242740
  C          -24.200490       46.859580       34.320300
  C           -8.976920       44.773170       30.566500
  C            3.470630       34.547690       30.406610
  C            6.109240       50.376650       30.547490
  C           -8.961080       46.715800       32.040090
  C            1.877050       33.566230       31.972780
  C            7.818100       49.436630       32.012410
  C           -9.121850       50.525270       32.745570
  C          -19.856300       63.713140       32.762290
  C          -25.855040       47.720740       32.747860
  C           -7.913970       44.239390       31.285520
  C            3.440890       35.730760       31.136480
  C            5.133080       49.711110       31.280650
  C          -10.162330       52.997440       33.535270
  C          -21.461530       61.538260       33.471260
  C          -23.201490       47.517560       33.610540
  C           -6.889570       48.216370       30.728690
  C           -0.517650       34.623700       30.811620
  C            8.179700       46.893820       30.679110
  C          -11.129110       48.971400       34.125660
  C          -17.453580       62.734090       34.016350
  C          -26.121930       50.308100       33.964670
  C           -4.604990       48.946590       30.810530
  C           -2.272530       36.241020       31.040110
  C            7.622670       44.562220       30.801860
  C          -13.433520       48.305370       34.049000
  C          -15.725260       61.081870       33.818420
  C          -25.603400       52.645410       33.787860
  C          -10.178040       51.124300       32.041580
  C          -19.843240       62.527000       32.012310
  C          -24.812490       48.333880       32.034610
  C           -7.901870       46.131010       32.750050
  C            1.891880       34.770840       32.694290
  C            6.799730       48.792600       32.732720
  C          -10.708260       52.351460       32.428770
  C          -20.632490       61.435470       32.358780
  C          -23.490140       48.247880       32.459630
  C           -7.365030       44.903640       32.377790
  C            2.659590       35.857670       32.283010
  C            5.461280       48.913930       32.373610
  C          -13.727950       55.990970       39.182400
  C          -22.067000       56.919490       39.557540
  C          -18.837490       49.043880       29.930120
  C           -4.264690       41.275610       34.856930
  C            4.099330       40.510590       35.110310
  C            0.817470       47.988650       34.986650
  C          -11.510890       56.833620       39.709370
  C          -23.983160       58.414290       39.452600
  C          -19.094670       46.786440       39.302660
  C           -6.478870       40.375030       35.298280
  C            5.970400       38.954500       35.084820
  C            1.153980       50.397040       34.954900
  C          -11.881870       54.354380       39.253780
  C          -21.626900       59.342130       39.325260
  C          -21.055900       48.392950       39.384400
  C           -6.092600       42.887550       35.265120
  C            3.605690       38.098630       35.347360
  C            3.119850       48.824800       35.299170
  C          -12.357630       55.759170       39.391370
  C          -22.592180       58.218920       39.453600
  C          -19.611040       48.072640       39.529460
  C           -5.628160       41.480490       35.126240
  C            4.589390       39.195620       35.164070
  C            1.676450       49.098010       35.067990
  C          -12.125310       58.044380       29.857640
  C          -24.834410       57.317580       39.547580
  C          -17.726990       46.557860       39.426820
  C           -5.962060       39.083220       35.220320
  C            6.854020       40.024370       34.980680
  C           -0.216870       50.579820       34.785540
  C          -14.241570       57.283310       39.245220
  C          -22.919450       55.819170       39.602540
  C          -17.463230       48.826520       30.004390
  C           -3.738910       39.986740       34.826260
  C            4.985640       41.582160       35.057140
  C           -0.556960       48.173120       34.870470
  C          -13.868980       59.773510       39.575560
  C          -25.288690       54.896530       39.569580
  C          -15.400130       47.311600       39.713750
  C           -4.082260       37.482650       35.072380
  C            7.369130       42.440260       35.042010
  C           -2.546320       49.743090       34.773100
  C          -13.394690       58.360620       39.558130
  C          -24.310340       56.016080       39.592380
  C          -16.855950       47.618620       39.725690
  C           -4.585740       38.882720       35.017520
  C            6.369140       41.341250       35.006170
  C           -1.082190       49.472990       34.781160
  C          -12.293400       48.955790       39.666260
  C          -16.741330       61.686070       39.504770
  C          -25.574910       51.485680       39.545590
  C           -5.640250       48.292600       35.019110
  C           -1.202510       35.591690       35.103140
  C            7.556060       45.860160       35.234460
  C           -8.521410       49.173540       37.361150
  C           -0.354240       32.635440       37.361550
  C            9.836200       48.068870       37.343930
  C           -9.331440       48.066260       37.422880
  C            1.013210       32.508150       37.369320
  C          -27.830780       49.305520       37.376090
  C           -4.766830       49.629570       36.842350
  C           -2.688210       35.647510       37.016080
  C            8.572720       44.485260       36.952060
  C          -13.066230       47.459540       37.924460
  C          -15.140490       61.792540       37.689400
  C          -26.336760       52.804130       37.658340
  C           -6.051320       49.751010       37.367920
  C           -2.095460       34.483240       37.503520
  C            9.304350       45.587410       37.391120
  C          -11.767380       47.373810       37.430550
  C          -15.725200       62.979430       37.251040
  C          -27.108840       51.732270       37.216790
  C          -10.706560       48.102360       38.002320
  C          -16.853100       63.529580       37.890210
  C          -27.105490       50.501820       37.899870
  C           -7.153470       49.117320       36.764690
  C           -1.033860       33.855410       36.824330
  C            9.147120       46.858920       36.806900
  C           -8.435540       51.247590       38.860720
  C          -20.707340       63.846610       38.859620
  C          -25.420450       47.077590       38.849770
  C           -9.396630       46.035700       35.876820
  C            2.768140       33.564370       35.839580
  C            7.453980       50.300150       35.844460
  C           -8.942280       52.494380       39.243530
  C          -21.512180       62.763930       39.224610
  C          -24.073100       46.916430       39.185880
  C           -8.914070       44.783680       35.484750
  C            3.545400       34.661770       35.460160
  C            6.117850       50.439960       35.456970
  C           -8.839170       46.721890       36.970580
  C            1.878440       33.646960       36.924780
  C            7.813980       49.507250       36.948980
  C           -9.004380       50.525200       37.796730
  C          -19.806600       63.750890       37.784880
  C          -25.805610       47.893580       37.771340
  C           -7.841780       44.225120       36.168930
  C            3.409990       35.861290       36.148910
  C            5.129220       49.765190       36.163850
  C          -10.036540       53.022360       38.566420
  C          -21.403400       61.569150       38.522810
  C          -23.103020       47.595220       38.457600
  C           -6.920170       48.427040       35.558720
  C           -0.630070       34.419760       35.598850
  C            8.302050       46.947870       35.682380
  C          -11.000300       48.863450       39.151530
  C          -17.310790       62.876400       39.052370
  C          -26.359690       50.424050       39.093390
  C           -4.570290       48.880680       35.685460
  C           -2.224410       36.200510       35.824150
  C            7.676190       44.644080       35.899720
  C          -13.321800       48.260310       39.035650
  C          -15.670010       61.141870       38.800590
  C          -25.558750       52.663440       38.803470
  C          -10.089230       51.108960       37.119520
  C          -19.743910       62.531950       37.086870
  C          -24.794520       48.571930       37.069040
  C           -7.772240       46.110760       37.652070
  C            1.779580       34.876030       37.600000
  C            6.780610       48.859840       37.650270
  C          -10.610330       52.344390       37.491580
  C          -20.527670       61.438910       37.445980
  C          -23.449060       48.436540       37.402770
  C           -7.265600       44.873560       37.259200
  C            2.528850       35.985360       37.220870
  C            5.446010       48.974530       37.266370
  O          -10.642970       54.265810       33.915190
  O          -22.315130       60.462670       33.794530
  O          -21.870630       47.375250       34.049900
  O           -7.414600       42.972460       30.925320
  O            4.273180       36.795090       30.732470
  O            3.783110       49.898870       30.923530
  O          -12.627930       53.335130       34.590110
  O          -20.511310       59.287550       34.585730
  O          -21.647810       49.647040       34.319800
  O           -5.467450       43.941070       30.193750
  O            2.448430       38.022450       30.067210
  O            3.620580       47.690930       30.323080
  O          -15.221030       59.820600       34.186000
  O          -24.749510       53.714140       34.116900
  O          -14.760800       48.539930       34.445750
  O           -2.780190       37.513970       30.723810
  O            6.783100       43.506770       30.398550
  O           -3.261540       48.726890       30.459280
  O          -13.183760       60.709850       34.776880
  O          -26.503710       54.965100       34.911980
  O          -15.056520       46.372050       35.140970
  O           -4.745320       36.579780       29.993440
  O            8.645100       42.281020       39.689650
  O           -2.948380       50.901120       39.497800
  O          -10.530610       54.287920       38.957390
  O          -22.246440       60.497410       38.885710
  O          -21.742580       47.368680       38.761460
  O           -7.375320       42.950220       35.777760
  O            4.232520       36.940660       35.772580
  O            3.781750       49.940780       35.775370
  O          -12.597020       53.373860       39.364490
  O          -20.433260       59.266590       39.561520
  O          -21.577990       49.431040       39.753670
  O           -5.429830       43.871900       34.982970
  O            2.404260       38.196890       35.171540
  O            3.659220       47.747500       35.112000
  O          -15.184760       59.867640       39.160100
  O          -24.693560       53.714740       39.170750
  O          -14.641470       48.447620       39.491130
  O           -2.734530       37.439250       35.379620
  O            6.806170       43.593900       35.550960
  O           -3.253290       48.648610       35.237540
  O          -13.283130       60.659000       29.935300
  O          -26.565620       54.928180       29.872080
  O          -15.021370       46.118020       29.876360
  O           -4.769540       36.490960       34.908400
  O            8.536950       42.341930       34.709880
  O           -3.064040       50.798400       34.453110
  H          -14.342060       55.159530       44.784820
  H          -20.954490       56.858450       44.355320
  H          -19.116300       50.382330       44.218820
  H           -3.515990       42.308620       40.046770
  H            3.131690       40.575320       40.035820
  H            1.296800       47.059470       40.209450
  H          -10.394950       56.725660       44.111300
  H          -24.348000       59.493500       44.447710
  H          -19.855870       46.187860       44.792580
  H           -7.468430       40.677090       40.478660
  H            6.484440       37.886720       40.021290
  H            1.938300       51.309270       40.159380
  H          -11.300600       59.058390       44.256850
  H          -25.877240       57.512170       44.631000
  H          -17.392930       45.795730       45.070160
  H           -6.523600       38.357660       40.343060
  H            8.046120       39.843210       39.837000
  H           -0.524330       51.673780       39.853530
  H          -15.266040       57.495520       44.812000
  H          -22.490700       54.873190       44.405400
  H          -16.647460       49.976630       44.410870
  H           -2.557110       39.986220       40.026460
  H            4.698280       42.535580       39.962350
  H           -1.181570       47.428480       40.026070
  H          -12.504360       49.546870       40.553730
  H          -17.115830       61.188440       40.395630
  H          -24.999200       51.404490       40.464630
  H           -5.380790       47.829530       44.046880
  H           -0.783410       36.096990       44.115880
  H            6.982410       46.023110       44.335410
  H           -4.086210       50.663480       42.106170
  H           -3.742430       35.838390       42.410220
  H            8.774390       43.487660       42.248240
  H          -13.838940       46.846640       42.567920
  H          -14.135570       61.527270       42.259590
  H          -26.708650       53.856800       42.349390
  H           -6.390370       50.846890       42.889200
  H           -2.730620       33.714960       43.060640
  H           10.055470       45.397770       43.064530
  H          -11.557470       46.665610       41.717190
  H          -15.145330       63.623950       41.529120
  H          -28.026280       51.930500       41.648590
  H           -7.735840       50.814340       44.425900
  H          -20.583280       64.724150       44.496090
  H          -26.219170       46.614080       44.461750
  H          -10.166890       46.551240       40.276260
  H            2.729330       32.662280       40.151310
  H            8.305270       50.755330       40.234840
  H           -8.519300       53.025200       40.092370
  H          -22.182900       62.832140       40.077040
  H          -23.782540       46.299160       40.031540
  H           -9.241750       44.349820       44.579330
  H            4.306360       34.679010       44.562600
  H            5.943440       51.106680       44.539800
  H           -7.551130       47.652640       40.245490
  H            0.482040       34.380330       40.273970
  H            8.151870       47.932710       40.150810
  H          -10.255340       49.642330       44.538810
  H          -18.248610       63.176160       44.475780
  H          -25.851420       49.429070       44.394640
  H          -10.509980       50.695280       41.136750
  H          -19.105950       62.530270       41.100210
  H          -24.945360       48.987880       41.098220
  H           -7.384710       46.726990       43.558140
  H            1.370490       34.947680       43.540620
  H            7.152410       48.249210       43.539230
  H          -11.442300       52.872370       41.833370
  H          -20.513270       60.600080       41.724750
  H          -22.611190       48.829060       41.861250
  H           -6.442510       44.550740       42.887410
  H            2.736530       36.866330       42.801290
  H            4.782400       48.473100       42.893980
  H          -14.276070       55.220890       48.904200
  H          -20.894690       56.874470       49.525650
  H          -19.171820       50.104430       40.072060
  H           -3.540190       42.224900       44.663450
  H            3.115170       40.744640       45.103610
  H            1.340390       47.069700       45.009220
  H          -10.452190       56.653410       39.876530
  H          -24.295330       59.496930       49.327530
  H          -19.673790       46.055040       48.982550
  H           -7.442970       40.611650       45.456350
  H            6.431280       38.010440       45.071250
  H            1.914840       51.329210       44.964420
  H          -11.399660       58.968430       40.067080
  H          -25.823110       57.516220       49.507730
  H          -17.211200       45.647120       49.220500
  H           -6.510650       38.291170       45.310290
  H            8.019770       39.942040       44.877310
  H           -0.552830       51.653370       44.652000
  H          -15.202150       57.544220       49.003460
  H          -22.426660       54.886760       49.593650
  H          -16.694180       49.721090       40.195320
  H           -2.583540       39.905880       44.622440
  H            4.710450       42.681950       45.022860
  H           -1.138400       47.397370       44.816480
  H          -12.571620       49.832420       45.393430
  H          -17.218260       61.055130       45.226560
  H          -24.512680       51.383760       45.096740
  H           -5.122720       47.533790       49.426290
  H           -0.450740       36.604620       49.571350
  H            6.934930       46.072270       49.290490
  H           -3.834150       50.178040       47.301880
  H           -3.400900       36.198970       47.529680
  H            8.773760       43.601900       47.405530
  H          -13.775250       46.991790       47.388100
  H          -14.205480       61.446610       47.104960
  H          -26.236780       53.816360       47.059560
  H           -6.076290       50.394570       48.240330
  H           -2.359240       34.177270       48.408690
  H           10.065630       45.521410       48.186470
  H          -11.512320       46.826400       46.516860
  H          -15.213640       63.524540       46.325100
  H          -27.584100       51.941180       46.258000
  H           -7.543970       50.892110       49.412050
  H          -20.651590       64.821170       49.427880
  H          -26.079860       46.684350       49.436240
  H          -10.076520       46.581660       45.226560
  H            2.906070       32.743650       45.184950
  H            8.311410       50.836000       45.179870
  H           -8.629240       53.031770       45.085190
  H          -22.044530       62.810110       45.082400
  H          -23.861070       46.388840       45.180970
  H           -9.182700       44.401830       49.611270
  H            4.251670       34.638370       49.412750
  H            6.012160       51.122410       49.592060
  H           -7.674230       48.071570       44.991110
  H            0.243550       34.005240       44.984040
  H            8.321290       47.969660       45.111270
  H          -10.100840       49.459950       49.611070
  H          -18.040520       63.392390       49.564180
  H          -26.307870       49.584870       49.630290
  H          -10.453840       50.654410       46.247450
  H          -18.966460       62.514510       46.206730
  H          -24.979240       49.302900       46.204740
  H           -7.228600       46.694780       48.455380
  H            1.179800       35.043390       48.387280
  H            7.116680       48.319090       48.463850
  H          -11.363680       52.843170       46.910320
  H          -20.365090       60.582520       46.848190
  H          -22.590000       49.045100       46.800400
  H           -6.342850       44.499900       47.752090
  H            2.525100       37.003490       47.712570
  H            4.758470       48.530370       47.772500
  C          -13.693310       56.023880       44.660270
  C          -22.033810       56.983570       44.399820
  C          -18.722590       49.385280       44.401410
  C           -4.156680       41.432910       40.120850
  C            4.209260       40.432870       40.001570
  C            0.878600       48.061300       40.144740
  C          -11.452880       56.898560       44.288510
  C          -23.948630       58.483190       44.459950
  C          -19.151830       47.013040       44.730260
  C           -6.400560       40.519130       40.356300
  C            6.100250       38.902330       39.987140
  C            1.255480       50.465160       40.109200
  C          -11.860370       54.400160       44.313500
  C          -21.603980       59.414660       44.260040
  C          -21.063860       48.609120       44.258050
  C           -6.026690       43.019710       40.404690
  C            3.739440       38.016000       40.228170
  C            3.192340       48.858640       40.440130
  C          -12.323850       55.805800       44.435960
  C          -22.560570       58.285300       44.384690
  C          -19.624780       48.311670       44.481360
  C           -5.538230       41.624680       40.278250
  C            4.714680       39.123360       40.052950
  C            1.754200       49.156420       40.217720
  C          -11.952510       58.194520       44.360690
  C          -24.799880       57.385840       44.555030
  C          -17.786680       46.792090       44.882680
  C           -5.878660       39.231580       40.287510
  C            6.969100       39.985170       39.890660
  C           -0.111820       50.671510       39.944820
  C          -14.201200       57.320090       44.681770
  C          -22.887440       55.884480       44.436860
  C          -17.354820       49.158220       44.514910
  C           -3.629480       40.145120       40.103620
  C            5.080420       41.518030       39.954780
  C           -0.492640       48.268720       40.035130
  C          -13.795710       59.820820       44.500380
  C          -25.244030       54.957000       44.528850
  C          -15.431790       47.532590       44.792090
  C           -3.995400       37.642060       40.233950
  C            7.460450       42.401670       39.948510
  C           -2.448630       49.865490       39.900720
  C          -13.329160       58.410220       44.528850
  C          -24.275630       56.083390       44.518790
  C          -16.880890       47.856920       44.750370
  C           -4.491340       39.040310       40.192930
  C            6.466930       41.296510       39.910280
  C           -0.992320       49.577590       39.943530
  C          -12.335880       49.158040       44.574150
  C          -16.785720       61.619060       44.404100
  C          -25.275860       51.483210       44.329230
  C           -5.485050       48.183210       40.232650
  C           -1.000870       35.909360       40.383480
  C            7.538370       45.885250       40.162660
  C           -8.539810       49.253030       42.277410
  C           -0.306780       32.674490       42.302000
  C            9.890330       48.034360       42.278200
  C           -9.350510       48.149170       42.406540
  C          -17.497900       64.774980       42.367010
  C          -27.734020       49.291160       42.371590
  C           -4.846430       50.002620       41.698370
  C           -2.814410       35.518480       41.942790
  C            8.634290       44.462570       41.788870
  C          -13.054600       47.465430       42.996330
  C          -15.035240       61.889270       42.750320
  C          -26.519170       52.885350       42.797710
  C           -6.163330       50.093450       42.144100
  C           -2.224950       34.312670       42.311660
  C            9.357050       45.561350       42.251320
  C          -11.750420       47.370790       42.517050
  C          -15.624560       63.080850       42.335050
  C          -27.262270       51.775790       42.400460
  C          -10.715640       48.195420       43.006080
  C          -16.827230       63.553030       42.898760
  C          -27.006960       50.483350       42.906230
  C           -7.166380       49.208840       41.694690
  C           -0.986800       33.895560       41.781200
  C            9.167110       46.853580       41.718980
  C           -8.504900       51.281900       43.814610
  C          -20.602150       63.852170       43.845870
  C          -25.433940       47.050030       43.847860
  C           -9.398310       46.095680       40.896420
  C            2.771320       33.550850       40.777640
  C            7.542060       50.304030       40.864860
  C           -9.014880       52.521680       44.206970
  C          -21.413590       62.770360       44.198710
  C          -24.108570       46.936970       44.276270
  C           -8.885010       44.850570       40.522470
  C            3.562550       34.625080       40.362580
  C            6.201160       50.454040       40.503450
  C           -8.869160       46.793190       41.996050
  C            1.968960       33.643620       41.928750
  C            7.910020       49.514020       41.968370
  C           -9.029930       50.602660       42.701530
  C          -19.764390       63.790530       42.718260
  C          -25.763120       47.798130       42.703820
  C           -7.822050       44.316780       41.241490
  C            3.532800       35.808150       41.092450
  C            5.225000       49.788500       41.236610
  C          -10.070410       53.074830       43.491240
  C          -21.369610       61.615650       43.427220
  C          -23.109570       47.594950       43.566510
  C           -6.797650       48.293760       40.684650
  C           -0.425730       34.701090       40.767590
  C            8.271610       46.971220       40.635070
  C          -11.037190       49.048790       44.081630
  C          -17.361670       62.811480       43.972310
  C          -26.030010       50.385490       43.920640
  C           -4.513070       49.023980       40.766490
  C           -2.180620       36.318410       40.996070
  C            7.714590       44.639610       40.757830
  C          -13.341600       48.382760       44.004970
  C          -15.633340       61.159260       43.774390
  C          -25.511480       52.722800       43.743820
  C          -10.086130       51.201690       41.997550
  C          -19.751320       62.604400       41.968270
  C          -24.720570       48.411270       41.990580
  C           -7.809950       46.208400       42.706010
  C            1.983800       34.848230       42.650260
  C            6.891650       48.869990       42.688690
  C          -10.616350       52.428850       42.384730
  C          -20.540570       61.512870       42.314740
  C          -23.398220       48.325270       42.415600
  C           -7.273110       44.981030       42.333760
  C            2.751510       35.935070       42.238980
  C            5.553200       48.991320       42.329580
  C          -13.636030       56.068360       49.138360
  C          -21.975090       56.996880       49.513500
  C          -18.745570       49.121280       39.886080
  C           -4.172770       41.353000       44.812890
  C            4.191240       40.587980       45.066270
  C            0.909390       48.066040       44.942620
  C          -11.418970       56.911010       49.665330
  C          -23.891250       58.491680       49.408570
  C          -19.002760       46.863830       49.258630
  C           -6.386960       40.452430       45.254240
  C            6.062320       39.031890       45.040790
  C            1.245890       50.474430       44.910860
  C          -11.789950       54.431770       49.209750
  C          -21.534980       59.419520       49.281230
  C          -20.963980       48.470340       49.340370
  C           -6.000680       42.964950       45.221090
  C            3.697610       38.176020       45.303320
  C            3.211770       48.902190       45.255140
  C          -12.265710       55.836570       49.347340
  C          -22.500260       58.296310       49.409560
  C          -19.519120       48.150030       49.485430
  C           -5.536240       41.557880       45.082200
  C            4.681310       39.273010       45.120030
  C            1.768370       49.175400       45.023960
  C          -12.033390       58.121770       39.813610
  C          -24.742490       57.394970       49.503550
  C          -17.635070       46.635250       49.382780
  C           -5.870140       39.160610       45.176290
  C            6.945940       40.101770       44.936650
  C           -0.124950       50.657210       44.741510
  C          -14.149650       57.360700       49.201180
  C          -22.827530       55.896560       49.558500
  C          -17.371320       48.903910       39.960360
  C           -3.646990       40.064130       44.782230
  C            5.077560       41.659550       45.013110
  C           -0.465050       48.250510       44.826430
  C          -13.777060       59.850900       49.531520
  C          -25.196770       54.973920       49.525550
  C          -15.308210       47.388990       49.669710
  C           -3.990340       37.560040       45.028340
  C            7.461040       42.517660       44.997970
  C           -2.454400       49.820490       44.729060
  C          -13.302780       58.438010       49.514100
  C          -24.218420       56.093470       49.548350
  C          -16.764040       47.696010       49.681660
  C           -4.493820       38.960110       44.973480
  C            6.461050       41.418640       44.962130
  C           -0.990270       49.550380       44.737130
  C          -12.201480       49.033180       49.622220
  C          -16.649410       61.763470       49.460740
  C          -25.482990       51.563070       49.501560
  C           -5.548330       48.369990       44.975080
  C           -1.110590       35.669080       45.059100
  C            7.647980       45.937550       45.190420
  C           -8.429490       49.250940       47.317120
  C           -0.262330       32.712830       47.317520
  C            9.928110       48.146260       47.299890
  C           -9.239520       48.143650       47.378840
  C            1.105130       32.585540       47.325280
  C          -27.738860       49.382910       47.332050
  C           -4.674910       49.706970       46.798310
  C           -2.596290       35.724900       46.972040
  C            8.664640       44.562650       46.908030
  C          -12.974310       47.536930       47.880430
  C          -15.048570       61.869930       47.645370
  C          -26.244840       52.881520       47.614300
  C           -5.959400       49.828400       47.323890
  C           -2.003550       34.560640       47.459490
  C            9.396270       45.664800       47.347080
  C          -11.675470       47.451200       47.386510
  C          -15.633280       63.056820       47.207000
  C          -27.016920       51.809660       47.172760
  C          -10.614640       48.179750       47.958280
  C          -16.761180       63.606970       47.846180
  C          -27.013570       50.579220       47.855830
  C           -7.061550       49.194710       46.720660
  C           -0.941940       33.932800       46.780290
  C            9.239040       46.936310       46.762870
  C           -8.343630       51.324980       48.816680
  C          -20.615420       63.924010       48.815590
  C          -25.328530       47.154980       48.805730
  C           -9.304710       46.113090       45.832780
  C            2.860060       33.641760       45.795550
  C            7.545900       50.377540       45.800430
  C           -8.850360       52.571770       49.199490
  C          -21.420260       62.841330       49.180580
  C          -23.981180       46.993820       49.141850
  C           -8.822150       44.861070       45.440720
  C            3.637320       34.739160       45.416130
  C            6.209770       50.517350       45.412940
  C           -8.747250       46.799280       46.926540
  C            1.970350       33.724350       46.880750
  C            7.905900       49.584640       46.904940
  C           -8.912460       50.602590       47.752690
  C          -19.714680       63.828280       47.740840
  C          -25.713700       47.970980       47.727300
  C           -7.749860       44.302510       46.124890
  C            3.501910       35.938680       46.104880
  C            5.221140       49.842580       46.119810
  C           -9.944620       53.099760       48.522390
  C          -21.311480       61.646540       48.478780
  C          -23.011100       47.672610       48.413570
  C           -6.828260       48.504430       45.514690
  C           -0.538150       34.497150       45.554810
  C            8.393970       47.025260       45.638340
  C          -10.908380       48.940840       49.107500
  C          -17.218870       62.953790       49.008340
  C          -26.267780       50.501450       49.049360
  C           -4.478370       48.958070       45.641430
  C           -2.132500       36.277900       45.780120
  C            7.768110       44.721470       45.855680
  C          -13.229880       48.337700       48.991610
  C          -15.578100       61.219260       48.756550
  C          -25.466830       52.740830       48.759440
  C           -9.997310       51.186350       47.075490
  C          -19.651990       62.609340       47.042830
  C          -24.702600       48.649320       47.025010
  C           -7.680320       46.188150       47.608030
  C            1.871500       34.953420       47.555960
  C            6.872530       48.937230       47.606240
  C          -10.518410       52.421780       47.447540
  C          -20.435750       61.516300       47.401940
  C          -23.357150       48.513930       47.358730
  C           -7.173680       44.950950       47.215170
  C            2.620760       36.062750       47.176840
  C            5.537930       49.051920       47.222340
  O          -10.551060       54.343200       43.871160
  O          -22.223220       60.540060       43.750490
  O          -21.778710       47.452650       44.005860
  O           -7.322690       43.049850       40.881280
  O            4.365100       36.872480       40.688440
  O            3.875030       49.976260       40.879490
  O          -12.536020       53.412520       44.546070
  O          -20.419400       59.364940       44.541690
  O          -21.555890       49.724430       44.275770
  O           -5.375530       44.018460       40.149720
  O            2.540340       38.099840       40.023180
  O            3.712500       47.768320       40.279050
  O          -15.129120       59.897990       44.141960
  O          -24.657600       53.791530       44.072870
  O          -14.668890       48.617330       44.401710
  O           -2.688270       37.591360       40.679770
  O            6.875020       43.584170       40.354510
  O           -3.169620       48.804280       40.415240
  O          -13.091840       60.787240       44.732850
  O          -26.411790       55.042500       44.867950
  O          -14.964600       46.449440       45.096940
  O           -4.653400       36.657170       39.949400
  O            8.737010       42.358410       49.645620
  O           -2.856460       50.978520       49.453770
  O          -10.438690       54.365310       48.913360
  O          -22.154520       60.574800       48.841670
  O          -21.650660       47.446070       48.717420
  O           -7.283400       43.027610       45.733720
  O            4.324440       37.018050       45.728540
  O            3.873670       50.018170       45.731330
  O          -12.505100       53.451250       49.320460
  O          -20.341350       59.343980       49.517480
  O          -21.486070       49.508430       49.709640
  O           -5.337910       43.949290       44.938940
  O            2.496180       38.274280       45.127500
  O            3.751140       47.824890       45.067970
  O          -15.092840       59.945030       49.116060
  O          -24.601640       53.792130       49.126710
  O          -14.549550       48.525010       49.447100
  O           -2.642610       37.516650       45.335580
  O            6.898090       43.671290       45.506920
  O           -3.161380       48.726000       45.193510
  O          -13.191210       60.736390       39.891260
  O          -26.473710       55.005580       39.828040
  O          -14.929450       46.195410       39.832320
  O           -4.677620       36.568350       44.864370
  O            8.628870       42.419320       44.665840
  O           -2.972120       50.875790       44.409080
  H          -14.250140       55.236920       54.740780
  H          -20.862570       56.935850       54.311280
  H          -19.024380       50.459720       54.174790
  H           -3.424080       42.386010       50.002740
  H            3.223600       40.652710       49.991790
  H            1.388710       47.136860       50.165420
  H          -10.303040       56.803050       54.067260
  H          -24.256090       59.570890       54.403670
  H          -19.763950       46.265250       54.748550
  H           -7.376520       40.754480       50.434630
  H            6.576360       37.964110       49.977250
  H            2.030210       51.386660       50.115340
  H          -11.208690       59.135780       54.212820
  H          -25.785320       57.589560       54.586960
  H          -17.301010       45.873120       55.026120
  H           -6.431680       38.435060       50.299030
  H            8.138040       39.920610       49.792970
  H           -0.432410       51.751170       49.809490
  H          -15.174130       57.572910       54.767960
  H          -22.398780       54.950580       54.361360
  H          -16.555540       50.054020       54.366840
  H           -2.465200       40.063610       49.982430
  H            4.790200       42.612970       49.918310
  H           -1.089650       47.505870       49.982030
  H          -12.412440       49.624270       50.509700
  H          -17.023910       61.265840       50.351600
  H          -24.907280       51.481880       50.420590
  H           -5.288870       47.906920       54.002850
  H           -0.691490       36.174380       54.071840
  H            7.074330       46.100500       54.291370
  H           -3.994290       50.740870       52.062130
  H           -3.650520       35.915780       52.366190
  H            8.866310       43.565050       52.204200
  H          -13.747020       46.924030       52.523890
  H          -14.043660       61.604660       52.215550
  H          -26.616740       53.934190       52.305350
  H           -6.298450       50.924280       52.845170
  H           -2.638700       33.792360       53.016610
  H           10.147390       45.475160       53.020490
  H          -11.465550       46.743000       51.673150
  H          -15.053410       63.701350       51.485080
  H          -27.934360       52.007890       51.604550
  H           -7.643920       50.891730       54.381870
  H          -20.491360       64.801540       54.452060
  H          -26.127250       46.691470       54.417710
  H          -10.074970       46.628630       50.232220
  H            2.821250       32.739670       50.107280
  H            8.397190       50.832720       50.190810
  H           -8.427380       53.102590       50.048340
  H          -22.090980       62.909530       50.033000
  H          -23.690620       46.376550       49.987510
  H           -9.149830       44.427210       54.535290
  H            4.398280       34.756400       54.518570
  H            6.035360       51.184070       54.495770
  H           -7.459210       47.730030       50.201460
  H            0.573950       34.457730       50.229930
  H            8.243790       48.010110       50.106780
  H          -10.163420       49.719720       54.494770
  H          -18.156700       63.253550       54.431750
  H          -25.759500       49.506460       54.350610
  H          -10.418060       50.772670       51.092720
  H          -19.014030       62.607660       51.056180
  H          -24.853450       49.065270       51.054190
  H           -7.292790       46.804380       53.514110
  H            1.462410       35.025070       53.496590
  H            7.244330       48.326600       53.495190
  H          -11.350380       52.949770       51.789340
  H          -20.421350       60.677470       51.680720
  H          -22.519270       48.906450       51.817210
  H           -6.350590       44.628130       52.843370
  H            2.828450       36.943720       52.757260
  H            4.874310       48.550490       52.849950
  H          -14.184150       55.298280       58.860160
  H          -20.802770       56.951860       59.481610
  H          -19.079900       50.181820       50.028030
  H           -3.448270       42.302290       54.619420
  H            3.207090       40.822030       55.059570
  H            1.432310       47.147090       54.965190
  H          -10.360270       56.730800       49.832490
  H          -24.203410       59.574320       59.283490
  H          -19.581870       46.132430       58.938520
  H           -7.351050       40.689040       55.412310
  H            6.523200       38.087830       55.027220
  H            2.006750       51.406600       54.920390
  H          -11.307750       59.045820       50.023050
  H          -25.731190       57.593610       59.463690
  H          -17.119280       45.724510       59.176460
  H           -6.418730       38.368570       55.266260
  H            8.111690       40.019430       54.833270
  H           -0.460910       51.730760       54.607970
  H          -15.110230       57.621610       58.959420
  H          -22.334740       54.964150       59.549610
  H          -16.602270       49.798480       50.151280
  H           -2.491620       39.983270       54.578400
  H            4.802360       42.759340       54.978830
  H           -1.046490       47.474760       54.772440
  H          -12.479710       49.909810       55.349390
  H          -17.126350       61.132520       55.182530
  H          -24.420760       51.461150       55.052700
  H           -5.030800       47.611180       59.382250
  H           -0.358830       36.682010       59.527310
  H            7.026840       46.149660       59.246450
  H           -3.742230       50.255430       57.257850
  H           -3.308980       36.276360       57.485640
  H            8.865680       43.679290       57.361490
  H          -13.683330       47.069180       57.344070
  H          -14.113560       61.524000       57.060920
  H          -26.144860       53.893750       57.015520
  H           -5.984370       50.471960       58.196300
  H           -2.267330       34.254660       58.364650
  H           10.157550       45.598800       58.142440
  H          -11.420410       46.903790       56.472820
  H          -15.121720       63.601930       56.281070
  H          -27.492180       52.018570       56.213970
  H           -7.452050       50.969500       59.368020
  H          -20.559670       64.898560       59.383850
  H          -25.987940       46.761740       59.392210
  H           -9.984600       46.659050       55.182530
  H            2.997980       32.821040       55.140910
  H            8.403330       50.913390       55.135840
  H           -8.537320       53.109160       55.041150
  H          -21.952610       62.887500       55.038370
  H          -23.769150       46.466230       55.136930
  H           -9.090780       44.479220       59.567240
  H            4.343580       34.715760       59.368710
  H            6.104080       51.199810       59.548020
  H           -7.582310       48.148960       54.947070
  H            0.335470       34.082640       54.940000
  H            8.413210       48.047050       55.067240
  H          -10.008920       49.537340       59.567040
  H          -17.948600       63.469780       59.520140
  H          -26.215950       49.662260       59.586250
  H          -10.361920       50.731800       56.203410
  H          -18.874540       62.591900       56.162690
  H          -24.887320       49.380290       56.160700
  H           -7.136690       46.772170       58.411350
  H            1.271720       35.120780       58.343250
  H            7.208590       48.396480       58.419810
  H          -11.271760       52.920560       56.866280
  H          -20.273170       60.659910       56.804160
  H          -22.498090       49.122490       56.756370
  H           -6.250940       44.577290       57.708060
  H            2.617020       37.080880       57.668530
  H            4.850390       48.607760       57.728470
  C          -13.601390       56.101270       54.616230
  C          -21.941890       57.060960       54.355790
  C          -18.630670       49.462670       54.357380
  C           -4.064760       41.510310       50.076810
  C            4.301180       40.510260       49.957540
  C            0.970520       48.138700       50.100710
  C          -11.360960       56.975950       54.244480
  C          -23.856710       58.560580       54.415920
  C          -19.059920       47.090430       54.686220
  C           -6.308640       40.596520       50.312270
  C            6.192170       38.979720       49.943100
  C            1.347390       50.542550       50.065160
  C          -11.768450       54.477550       54.269470
  C          -21.512060       59.492050       54.216000
  C          -20.971950       48.686510       54.214010
  C           -5.934770       43.097100       50.360660
  C            3.831360       38.093390       50.184140
  C            3.284260       48.936030       50.396100
  C          -12.231930       55.883190       54.391930
  C          -22.468660       58.362690       54.340650
  C          -19.532860       48.389060       54.437320
  C           -5.446310       41.702070       50.234210
  C            4.806600       39.200760       50.008910
  C            1.846110       49.233810       50.173680
  C          -11.860600       58.271910       54.316660
  C          -24.707960       57.463230       54.511000
  C          -17.694760       46.869490       54.838650
  C           -5.786740       39.308970       50.243470
  C            7.061020       40.062560       49.846630
  C           -0.019900       50.748900       49.900790
  C          -14.109280       57.397480       54.637740
  C          -22.795530       55.961870       54.392820
  C          -17.262910       49.235620       54.470880
  C           -3.537560       40.222510       50.059590
  C            5.172340       41.595420       49.910750
  C           -0.400720       48.346110       49.991090
  C          -13.703790       59.898210       54.456340
  C          -25.152120       55.034390       54.484810
  C          -15.339870       47.609980       54.748050
  C           -3.903480       37.719450       50.189910
  C            7.552370       42.479070       49.904470
  C           -2.356710       49.942880       49.856680
  C          -13.237250       58.487610       54.484810
  C          -24.183710       56.160780       54.474760
  C          -16.788970       47.934310       54.706330
  C           -4.399420       39.117700       50.148890
  C            6.558850       41.373910       49.866240
  C           -0.900400       49.654990       49.899500
  C          -12.243960       49.235430       54.530110
  C          -16.693810       61.696450       54.360070
  C          -25.183950       51.560600       54.285200
  C           -5.393140       48.260600       50.188620
  C           -0.908950       35.986750       50.339450
  C            7.630290       45.962640       50.118630
  C           -8.447890       49.330420       52.233370
  C           -0.214860       32.751880       52.257960
  C            9.982250       48.111760       52.234170
  C           -9.258600       48.226560       52.362500
  C          -17.405980       64.852380       52.322980
  C          -27.642100       49.368550       52.327560
  C           -4.754510       50.080010       51.654330
  C           -2.722490       35.595870       51.898750
  C            8.726210       44.539960       51.744830
  C          -12.962680       47.542820       52.952290
  C          -14.943320       61.966660       52.706280
  C          -26.427250       52.962740       52.753670
  C           -6.071410       50.170840       52.100060
  C           -2.133040       34.390060       52.267620
  C            9.448970       45.638750       52.207290
  C          -11.658500       47.448180       52.473010
  C          -15.532640       63.158240       52.291020
  C          -27.170350       51.853180       52.356430
  C          -10.623720       48.272810       52.962050
  C          -16.735310       63.630430       52.854720
  C          -26.915040       50.560750       52.862190
  C           -7.074460       49.286230       51.650650
  C           -0.894880       33.972950       51.737170
  C            9.259030       46.930970       51.674940
  C           -8.412990       51.359300       53.770570
  C          -20.510230       63.929560       53.801840
  C          -25.342020       47.127420       53.803830
  C           -9.306390       46.173070       50.852380
  C            2.863240       33.628240       50.733610
  C            7.633980       50.381420       50.820820
  C           -8.922960       52.599070       54.162940
  C          -21.321670       62.847750       54.154670
  C          -24.016650       47.014370       54.232230
  C           -8.793090       44.927960       50.478430
  C            3.654460       34.702470       50.318540
  C            6.293080       50.531430       50.459420
  C           -8.777240       46.870580       51.952020
  C            2.060880       33.721010       51.884710
  C            8.001930       49.591420       51.924340
  C           -8.938010       50.680050       52.657500
  C          -19.672470       63.867920       52.674220
  C          -25.671210       47.875520       52.659790
  C           -7.730130       44.394170       51.197450
  C            3.624720       35.885550       51.048410
  C            5.316920       49.865890       51.192580
  C           -9.978490       53.152220       53.447200
  C          -21.277700       61.693050       53.383190
  C          -23.017660       47.672350       53.522470
  C           -6.705730       48.371150       50.640620
  C           -0.333810       34.778480       50.723550
  C            8.363530       47.048610       50.591040
  C          -10.945270       49.126180       54.037590
  C          -17.269750       62.888870       53.928280
  C          -25.938090       50.462880       53.876600
  C           -4.421160       49.101380       50.722460
  C           -2.088700       36.395800       50.952040
  C            7.806510       44.717000       50.713790
  C          -13.249680       48.460150       53.960930
  C          -15.541430       61.236650       53.730350
  C          -25.419570       52.800190       53.699790
  C           -9.994210       51.279080       51.953510
  C          -19.659410       62.681790       51.924240
  C          -24.628650       48.488660       51.946540
  C           -7.718030       46.285790       52.661980
  C            2.075720       34.925620       52.606220
  C            6.983560       48.947380       52.644650
  C          -10.524430       52.506240       52.340700
  C          -20.448650       61.590260       52.270710
  C          -23.306300       48.402660       52.371560
  C           -7.181190       45.058420       52.289720
  C            2.843430       36.012460       52.194940
  C            5.645120       49.068710       52.285540
  C          -13.544110       56.145750       59.094330
  C          -21.883170       57.074270       59.469470
  C          -18.653650       49.198670       49.842050
  C           -4.080850       41.430390       54.768860
  C            4.283160       40.665370       55.022240
  C            1.001310       48.143430       54.898580
  C          -11.327050       56.988410       59.621300
  C          -23.799330       58.569070       59.364530
  C          -18.910840       46.941220       59.214590
  C           -6.295040       40.529820       55.210210
  C            6.154240       39.109280       54.996750
  C            1.337810       50.551830       54.866820
  C          -11.698030       54.509160       59.165710
  C          -21.443070       59.496910       59.237190
  C          -20.872060       48.547730       59.296330
  C           -5.908770       43.042340       55.177050
  C            3.789530       38.253420       55.259290
  C            3.303690       48.979580       55.211100
  C          -12.173790       55.913960       59.303300
  C          -22.408340       58.373700       59.365530
  C          -19.427200       48.227420       59.441390
  C           -5.444320       41.635280       55.038170
  C            4.773230       39.350400       55.076000
  C            1.860290       49.252790       54.979920
  C          -11.941470       58.199160       49.769570
  C          -24.650580       57.472360       59.459510
  C          -17.543160       46.712640       59.338750
  C           -5.778220       39.238000       55.132250
  C            7.037860       40.179160       54.892610
  C           -0.033030       50.734600       54.697470
  C          -14.057730       57.438090       59.157150
  C          -22.735620       55.973950       59.514470
  C          -17.279400       48.981300       49.916320
  C           -3.555070       40.141530       54.738190
  C            5.169480       41.736940       54.969070
  C           -0.373130       48.327900       54.782400
  C          -13.685140       59.928290       59.487490
  C          -25.104860       55.051310       59.481510
  C          -15.216300       47.466380       59.625680
  C           -3.898420       37.637430       54.984310
  C            7.552960       42.595050       54.953940
  C           -2.362480       49.897880       54.685030
  C          -13.210860       58.515400       59.470060
  C          -24.126500       56.170860       59.504310
  C          -16.672120       47.773400       59.637620
  C           -4.401900       39.037510       54.929450
  C            6.552970       41.496030       54.918100
  C           -0.898350       49.627770       54.693090
  C          -12.109560       49.110570       59.578190
  C          -16.557490       61.840860       59.416700
  C          -25.391070       51.640470       59.457520
  C           -5.456410       48.447380       54.931040
  C           -1.018670       35.746480       55.015070
  C            7.739900       46.014940       55.146390
  C           -8.337570       49.328330       57.273080
  C           -0.170410       32.790220       57.273480
  C           10.020030       48.223650       57.255860
  C           -9.147600       48.221040       57.334810
  C            1.197050       32.662930       57.281250
  C          -27.646940       49.460300       57.288020
  C           -4.582990       49.784360       56.754280
  C           -2.504370       35.802290       56.928010
  C            8.756560       44.640040       56.863990
  C          -12.882400       47.614320       57.836390
  C          -14.956660       61.947320       57.601330
  C          -26.152930       52.958920       57.570270
  C           -5.867480       49.905800       57.279850
  C           -1.911630       34.638030       57.415450
  C            9.488190       45.742190       57.303050
  C          -11.583550       47.528590       57.342480
  C          -15.541360       63.134210       57.162970
  C          -26.925000       51.887050       57.128720
  C          -10.522720       48.257140       57.914250
  C          -16.669260       63.684360       57.802140
  C          -26.921650       50.656610       57.811800
  C           -6.969630       49.272110       56.676620
  C           -0.850030       34.010200       56.736260
  C            9.330950       47.013710       56.718830
  C           -8.251710       51.402370       58.772650
  C          -20.523500       64.001400       58.771550
  C          -25.236610       47.232370       58.761700
  C           -9.212800       46.190480       55.788750
  C            2.951970       33.719150       55.751510
  C            7.637820       50.454930       55.756390
  C           -8.758440       52.649160       59.155460
  C          -21.328340       62.918720       59.136540
  C          -23.889270       47.071210       59.097810
  C           -8.730240       44.938460       55.396680
  C            3.729240       34.816550       55.372090
  C            6.301690       50.594740       55.368900
  C           -8.655330       46.876670       56.882510
  C            2.062270       33.801740       56.836710
  C            7.997810       49.662030       56.860910
  C           -8.820550       50.679990       57.708660
  C          -19.622760       63.905670       57.696810
  C          -25.621780       48.048370       57.683270
  C           -7.657940       44.379900       56.080860
  C            3.593830       36.016070       56.060840
  C            5.313060       49.919970       56.075780
  C           -9.852700       53.177150       58.478350
  C          -21.219560       61.723930       58.434740
  C          -22.919190       47.750000       58.369530
  C           -6.736340       48.581820       55.470650
  C           -0.446230       34.574540       55.510780
  C            8.485890       47.102650       55.594310
  C          -10.816460       49.018230       59.063460
  C          -17.126950       63.031180       58.964300
  C          -26.175860       50.578840       59.005320
  C           -4.386450       49.035460       55.597390
  C           -2.040580       36.355290       55.736080
  C            7.860030       44.798860       55.811650
  C          -13.137970       48.415090       58.947580
  C          -15.486180       61.296650       58.712520
  C          -25.374910       52.818220       58.715400
  C           -9.905400       51.263740       57.031450
  C          -19.560080       62.686740       56.998800
  C          -24.610680       48.726720       56.980970
  C           -7.588400       46.265540       57.564000
  C            1.963410       35.030810       57.511930
  C            6.964440       49.014620       57.562200
  C          -10.426490       52.499170       57.403510
  C          -20.343830       61.593690       57.357910
  C          -23.265230       48.591320       57.314700
  C           -7.081760       45.028340       57.171130
  C            2.712680       36.140140       57.132800
  C            5.629850       49.129310       57.178300
  O          -10.459140       54.420590       53.827120
  O          -22.131300       60.617460       53.706460
  O          -21.686790       47.530040       53.961830
  O           -7.230770       43.127250       50.837250
  O            4.457010       36.949870       50.644400
  O            3.966950       50.053650       50.835460
  O          -12.444100       53.489910       54.502040
  O          -20.327480       59.442340       54.497660
  O          -21.463980       49.801820       54.231730
  O           -5.283610       44.095850       50.105680
  O            2.632260       38.177230       49.979140
  O            3.804420       47.845710       50.235010
  O          -15.037200       59.975380       54.097930
  O          -24.565680       53.868920       54.028830
  O          -14.576970       48.694720       54.357680
  O           -2.596350       37.668750       50.635740
  O            6.966940       43.661560       50.310480
  O           -3.077700       48.881670       50.371210
  O          -12.999920       60.864630       54.688810
  O          -26.319870       55.119890       54.823910
  O          -14.872680       46.526830       55.052900
  O           -4.561490       36.734560       49.905370
  O            8.828930       42.435800       59.601580
  O           -2.764540       51.055910       59.409730
  O          -10.346780       54.442700       58.869320
  O          -22.062610       60.652200       58.797640
  O          -21.558740       47.523460       58.673390
  O           -7.191480       43.105000       55.689690
  O            4.416350       37.095440       55.684510
  O            3.965590       50.095560       55.687300
  O          -12.413180       53.528640       59.276420
  O          -20.249430       59.421370       59.473450
  O          -21.394150       49.585820       59.665600
  O           -5.245990       44.026690       54.894900
  O            2.588100       38.351670       55.083470
  O            3.843060       47.902280       55.023930
  O          -15.000920       60.022430       59.072030
  O          -24.509720       53.869520       59.082680
  O          -14.457630       48.602400       59.403060
  O           -2.550690       37.594040       55.291550
  O            6.990000       43.748680       55.462890
  O           -3.069460       48.803400       55.149470
  O          -13.099290       60.813780       49.847230
  O          -26.381790       55.082970       49.784010
  O          -14.837540       46.272800       49.788290
  O           -4.585700       36.645750       54.820330
  O            8.720790       42.496710       54.621810
  O           -2.880200       50.953180       54.365040
  H          -14.158230       55.314310       64.696750
  H          -20.770660       57.013240       64.267250
  H          -18.932460       50.537110       64.130750
  H           -3.332160       42.463400       59.958700
  H            3.315520       40.730100       59.947750
  H            1.480630       47.214250       60.121380
  H          -10.211120       56.880450       64.023230
  H          -24.164170       59.648280       64.359640
  H          -19.672030       46.342650       64.704510
  H           -7.284600       40.831870       60.390590
  H            6.668280       38.041500       59.933220
  H            2.122130       51.464050       60.071310
  H          -11.116770       59.213170       64.168780
  H          -25.693400       57.666950       64.542930
  H          -17.209090       45.950510       64.982090
  H           -6.339760       38.512450       60.254990
  H            8.229960       39.998000       59.748930
  H           -0.340500       51.828560       59.765460
  H          -15.082210       57.650300       64.723930
  H          -22.306860       55.027970       64.317330
  H          -16.463630       50.131410       64.322800
  H           -2.373280       40.141000       59.938390
  H            4.882120       42.690360       59.874280
  H           -0.997730       47.583260       59.938000
  H          -12.320520       49.701660       60.465660
  H          -16.931990       61.343230       60.307560
  H          -24.815370       51.559270       60.376560
  H           -5.196950       47.984310       63.958810
  H           -0.599570       36.251770       64.027810
  H            7.166250       46.177890       64.247330
  H           -3.902380       50.818260       62.018090
  H           -3.558600       35.993170       62.322150
  H            8.958230       43.642440       62.160170
  H          -13.655110       47.001420       62.479850
  H          -13.951740       61.682050       62.171520
  H          -26.524820       54.011580       62.261320
  H           -6.206530       51.001670       62.801130
  H           -2.546780       33.869750       62.972570
  H           10.239310       45.552550       62.976460
  H          -11.373630       46.820390       61.629120
  H          -14.961490       63.778740       61.441050
  H          -27.842440       52.085280       61.560520
  H           -7.552000       50.969120       64.337830
  H          -20.399440       64.878940       64.408020
  H          -26.035340       46.768860       64.373680
  H           -9.983060       46.706020       60.188190
  H            2.913160       32.817070       60.063240
  H            8.489100       50.910110       60.146770
  H           -8.335460       53.179980       60.004300
  H          -21.999060       62.986920       59.988970
  H          -23.598710       46.453940       59.943470
  H           -9.057910       44.504600       64.491260
  H            4.490190       34.833790       64.474530
  H            6.127280       51.261460       64.451730
  H           -7.367290       47.807420       60.157420
  H            0.665870       34.535120       60.185900
  H            8.335700       48.087500       60.062740
  H          -10.071500       49.797110       64.450740
  H          -18.064780       63.330940       64.387710
  H          -25.667590       49.583850       64.306570
  H          -10.326140       50.850060       61.048680
  H          -18.922110       62.685050       61.012140
  H          -24.761530       49.142660       61.010150
  H           -7.200870       46.881770       63.470070
  H            1.554320       35.102460       63.452550
  H            7.336250       48.404000       63.451160
  H          -11.258460       53.027160       61.745300
  H          -20.329430       60.754860       61.636680
  H          -22.427350       48.983840       61.773180
  H           -6.258680       44.705520       62.799340
  H            2.920370       37.021120       62.713220
  H            4.966230       48.627880       62.805910
  H          -14.092230       55.375670       68.816130
  H          -20.710860       57.029250       69.437580
  H          -18.987980       50.259210       59.983990
  H           -3.356350       42.379680       64.575380
  H            3.299010       40.899420       65.015540
  H            1.524220       47.224480       64.921150
  H          -10.268350       56.808190       59.788460
  H          -24.111490       59.651710       69.239450
  H          -19.489950       46.209830       68.894480
  H           -7.259140       40.766430       65.368280
  H            6.615120       38.165220       64.983180
  H            2.098670       51.483990       64.876350
  H          -11.215830       59.123210       59.979010
  H          -25.639270       57.671010       69.419660
  H          -17.027360       45.801910       69.132430
  H           -6.326810       38.445960       65.222220
  H            8.203610       40.096820       64.789240
  H           -0.368990       51.808150       64.563930
  H          -15.018320       57.699000       68.915390
  H          -22.242820       55.041540       69.505580
  H          -16.510350       49.875870       60.107250
  H           -2.399710       40.060670       64.534370
  H            4.894280       42.836730       64.934790
  H           -0.954570       47.552150       64.728410
  H          -12.387790       49.987200       65.305360
  H          -17.034430       61.209910       65.138490
  H          -24.328840       51.538540       65.008670
  H           -4.938890       47.688570       69.338220
  H           -0.266910       36.759400       69.483280
  H            7.118760       46.227050       69.202420
  H           -3.650310       50.332820       67.213810
  H           -3.217060       36.353750       67.441610
  H            8.957600       43.756680       67.317460
  H          -13.591410       47.146570       67.300030
  H          -14.021640       61.601390       67.016890
  H          -26.052940       53.971140       66.971490
  H           -5.892450       50.549350       68.152260
  H           -2.175410       34.332050       68.320620
  H           10.249460       45.676190       68.098400
  H          -11.328490       46.981180       66.428790
  H          -15.029800       63.679320       66.237030
  H          -27.400260       52.095970       66.169930
  H           -7.360130       51.046890       69.323980
  H          -20.467750       64.975950       69.339810
  H          -25.896020       46.839130       69.348170
  H           -9.892680       46.736440       65.138490
  H            3.089900       32.898430       65.096880
  H            8.495250       50.990780       65.091800
  H           -8.445400       53.186550       64.997120
  H          -21.860690       62.964900       64.994330
  H          -23.677240       46.543620       65.092900
  H           -8.998860       44.556610       69.523200
  H            4.435500       34.793150       69.324680
  H            6.196000       51.277200       69.503980
  H           -7.490390       48.226360       64.903030
  H            0.427390       34.160030       64.895970
  H            8.505130       48.124440       65.023200
  H           -9.917000       49.614730       69.523000
  H          -17.856680       63.547170       69.476110
  H          -26.124030       49.739650       69.542220
  H          -10.270000       50.809190       66.159380
  H          -18.782620       62.669290       66.118660
  H          -24.795400       49.457680       66.116670
  H           -7.044770       46.849560       68.367310
  H            1.363640       35.198170       68.299210
  H            7.300510       48.473870       68.375770
  H          -11.179840       52.997950       66.822250
  H          -20.181260       60.737300       66.760120
  H          -22.406170       49.199880       66.712330
  H           -6.159020       44.654680       67.664020
  H            2.708940       37.158270       67.624500
  H            4.942310       48.685150       67.684430
  C          -13.509470       56.178660       64.572200
  C          -21.849970       57.138350       64.311750
  C          -18.538760       49.540060       64.313340
  C           -3.972840       41.587700       60.032780
  C            4.393090       40.587660       59.913500
  C            1.062430       48.216090       60.056670
  C          -11.269040       57.053340       64.200440
  C          -23.764800       58.637970       64.371880
  C          -18.968000       47.167830       64.642190
  C           -6.216730       40.673910       60.268230
  C            6.284080       39.057110       59.899070
  C            1.439310       50.619940       60.021130
  C          -11.676530       54.554940       64.225430
  C          -21.420140       59.569440       64.171970
  C          -20.880030       48.763900       64.169980
  C           -5.842850       43.174500       60.316620
  C            3.923280       38.170780       60.140100
  C            3.376180       49.013420       60.352060
  C          -12.140010       55.960590       64.347890
  C          -22.376740       58.440080       64.296620
  C          -19.440950       48.466450       64.393290
  C           -5.354390       41.779460       60.190180
  C            4.898510       39.278150       59.964880
  C            1.938030       49.311200       60.129650
  C          -11.768680       58.349300       64.272620
  C          -24.616040       57.540620       64.466960
  C          -17.602840       46.946880       64.794610
  C           -5.694820       39.386360       60.199440
  C            7.152940       40.139950       59.802590
  C            0.072020       50.826290       59.856750
  C          -14.017360       57.474870       64.593700
  C          -22.703610       56.039260       64.348790
  C          -17.170990       49.313010       64.426840
  C           -3.445650       40.299900       60.015550
  C            5.264260       41.672810       59.866710
  C           -0.308810       48.423500       59.947060
  C          -13.611880       59.975600       64.412310
  C          -25.060200       55.111790       64.440780
  C          -15.247950       47.687370       64.704020
  C           -3.811570       37.796840       60.145880
  C            7.644280       42.556460       59.860440
  C           -2.264790       50.020270       59.812650
  C          -13.145330       58.565000       64.440780
  C          -24.091790       56.238170       64.430720
  C          -16.697050       48.011700       64.662300
  C           -4.307510       39.195090       60.104860
  C            6.650760       41.451300       59.822210
  C           -0.808480       49.732380       59.855460
  C          -12.152040       49.312820       64.486080
  C          -16.601890       61.773840       64.316030
  C          -25.092030       51.638000       64.241160
  C           -5.301220       48.337990       60.144580
  C           -0.817030       36.064140       60.295410
  C            7.722210       46.040030       60.074590
  C           -8.355970       49.407810       62.189340
  C           -0.122940       32.829270       62.213930
  C           10.074170       48.189150       62.190130
  C           -9.166680       48.303950       62.318470
  C          -17.314070       64.929770       62.278940
  C          -27.550180       49.445940       62.283520
  C           -4.662590       50.157400       61.610300
  C           -2.630570       35.673260       61.854720
  C            8.818130       44.617350       61.700800
  C          -12.870760       47.620210       62.908260
  C          -14.851410       62.044050       62.662250
  C          -26.335340       53.040130       62.709640
  C           -5.979500       50.248230       62.056030
  C           -2.041120       34.467460       62.223590
  C            9.540890       45.716140       62.163250
  C          -11.566580       47.525570       62.428980
  C          -15.440720       63.235630       62.246980
  C          -27.078430       51.930570       62.312390
  C          -10.531800       48.350200       62.918010
  C          -16.643400       63.707820       62.810690
  C          -26.823120       50.638140       62.818160
  C           -6.982540       49.363620       61.606610
  C           -0.802960       34.050340       61.693130
  C            9.350950       47.008370       61.630910
  C           -8.321070       51.436690       63.726540
  C          -20.418320       64.006950       63.757800
  C          -25.250100       47.204810       63.759790
  C           -9.214470       46.250460       60.808350
  C            2.955160       33.705630       60.689570
  C            7.725900       50.458810       60.776790
  C           -8.831050       52.676460       64.118900
  C          -21.229750       62.925140       64.110640
  C          -23.924730       47.091760       64.188200
  C           -8.701170       45.005350       60.434400
  C            3.746380       34.779860       60.274510
  C            6.385000       50.608820       60.415380
  C           -8.685320       46.947970       61.907980
  C            2.152800       33.798400       61.840680
  C            8.093850       49.668810       61.880300
  C           -8.846090       50.757440       62.613460
  C          -19.580550       63.945310       62.630190
  C          -25.579290       47.952910       62.615750
  C           -7.638210       44.471560       61.153420
  C            3.716640       35.962940       61.004380
  C            5.408840       49.943280       61.148540
  C           -9.886570       53.229610       63.403170
  C          -21.185780       61.770440       63.339150
  C          -22.925740       47.749740       63.478440
  C           -6.613820       48.448540       60.596580
  C           -0.241890       34.855870       60.679520
  C            8.455450       47.126000       60.547000
  C          -10.853350       49.203570       63.993560
  C          -17.177830       62.966260       63.884240
  C          -25.846170       50.540270       63.832570
  C           -4.329240       49.178770       60.678420
  C           -1.996780       36.473190       60.908000
  C            7.898430       44.794390       60.669760
  C          -13.157760       48.537540       63.916900
  C          -15.449510       61.314040       63.686320
  C          -25.327650       52.877580       63.655750
  C           -9.902290       51.356470       61.909480
  C          -19.567490       62.759180       61.880200
  C          -24.536740       48.566050       61.902510
  C           -7.626120       46.363180       62.617940
  C            2.167630       35.003010       62.562190
  C            7.075480       49.024770       62.600620
  C          -10.432510       52.583630       62.296660
  C          -20.356740       61.667650       62.226670
  C          -23.214390       48.480050       62.327530
  C           -7.089270       45.135810       62.245690
  C            2.935340       36.089850       62.150910
  C            5.737030       49.146100       62.241510
  C          -13.452200       56.223140       69.050290
  C          -21.791250       57.151670       69.425430
  C          -18.561740       49.276060       59.798010
  C           -3.988930       41.507780       64.724820
  C            4.375080       40.742770       64.978200
  C            1.093220       48.220820       64.854550
  C          -11.235130       57.065800       69.577260
  C          -23.707410       58.646460       69.320500
  C          -18.818920       47.018610       69.170560
  C           -6.203120       40.607210       65.166170
  C            6.246160       39.186670       64.952720
  C            1.429730       50.629220       64.822790
  C          -11.606110       54.586550       69.121680
  C          -21.351150       59.574300       69.193160
  C          -20.780150       48.625120       69.252300
  C           -5.816850       43.119730       65.133020
  C            3.881450       38.330810       65.215250
  C            3.395610       49.056970       65.167070
  C          -12.081870       55.991350       69.259270
  C          -22.316420       58.451090       69.321490
  C          -19.335280       48.304810       69.397360
  C           -5.352410       41.712670       64.994130
  C            4.865140       39.427800       65.031960
  C            1.952210       49.330180       64.935890
  C          -11.849550       58.276560       59.725530
  C          -24.558660       57.549750       69.415480
  C          -17.451240       46.790030       69.294710
  C           -5.686300       39.315390       65.088220
  C            7.129770       40.256550       64.848580
  C            0.058880       50.811990       64.653440
  C          -13.965820       57.515480       69.113110
  C          -22.643700       56.051340       69.470430
  C          -17.187480       49.058690       59.872290
  C           -3.463160       40.218920       64.694160
  C            5.261390       41.814330       64.925040
  C           -0.281210       48.405300       64.738360
  C          -13.593220       60.005680       69.443450
  C          -25.012940       55.128700       69.437480
  C          -15.124380       47.543770       69.581640
  C           -3.806500       37.714820       64.940270
  C            7.644880       42.672440       64.909900
  C           -2.270570       49.975270       64.640990
  C          -13.118940       58.592790       69.426030
  C          -24.034580       56.248250       69.460280
  C          -16.580200       47.850790       69.593590
  C           -4.309990       39.114900       64.885410
  C            6.644890       41.573420       64.874060
  C           -0.806430       49.705160       64.649060
  C          -12.017650       49.187960       69.534150
  C          -16.465580       61.918250       69.372670
  C          -25.299150       51.717860       69.413490
  C           -5.364490       48.524770       64.887010
  C           -0.926750       35.823870       64.971030
  C            7.831820       46.092330       65.102350
  C           -8.245650       49.405720       67.229050
  C           -0.078490       32.867610       67.229450
  C           10.111950       48.301040       67.211820
  C           -9.055680       48.298430       67.290770
  C            1.288970       32.740330       67.237210
  C          -27.555030       49.537700       67.243980
  C           -4.491070       49.861750       66.710240
  C           -2.412450       35.879680       66.883970
  C            8.848480       44.717430       66.819960
  C          -12.790480       47.691710       67.792360
  C          -14.864740       62.024710       67.557300
  C          -26.061010       53.036310       67.526230
  C           -5.775570       49.983190       67.235820
  C           -1.819710       34.715420       67.371420
  C            9.580100       45.819580       67.259010
  C          -11.491630       47.605980       67.298440
  C          -15.449450       63.211600       67.118930
  C          -26.833080       51.964440       67.084690
  C          -10.430810       48.334530       67.870210
  C          -16.577340       63.761750       67.758110
  C          -26.829730       50.734000       67.767760
  C           -6.877720       49.349500       66.632590
  C           -0.758110       34.087590       66.692220
  C            9.422870       47.091100       66.674800
  C           -8.159790       51.479760       68.728610
  C          -20.431580       64.078790       68.727520
  C          -25.144700       47.309770       68.717660
  C           -9.120880       46.267880       65.744710
  C            3.043890       33.796540       65.707480
  C            7.729740       50.532320       65.712360
  C           -8.666530       52.726550       69.111420
  C          -21.236420       62.996110       69.092500
  C          -23.797350       47.148600       69.053780
  C           -8.638320       45.015850       65.352650
  C            3.821150       34.893940       65.328050
  C            6.393610       50.672130       65.324870
  C           -8.563410       46.954060       66.838470
  C            2.154190       33.879130       66.792680
  C            8.089730       49.739420       66.816870
  C           -8.728630       50.757380       67.664620
  C          -19.530840       63.983060       67.652770
  C          -25.529860       48.125760       67.639230
  C           -7.566030       44.457300       66.036820
  C            3.685740       36.093460       66.016810
  C            5.404980       49.997360       66.031740
  C           -9.760790       53.254540       68.434320
  C          -21.127640       61.801320       68.390710
  C          -22.827270       47.827390       68.325500
  C           -6.644420       48.659220       65.426620
  C           -0.354310       34.651930       65.466740
  C            8.577810       47.180040       65.550270
  C          -10.724550       49.095620       69.019430
  C          -17.035030       63.108580       68.920270
  C          -26.083940       50.656230       68.961290
  C           -4.294530       49.112850       65.553360
  C           -1.948660       36.432680       65.692050
  C            7.951950       44.876260       65.767610
  C          -13.046050       48.492480       68.903540
  C          -15.394260       61.374050       68.668480
  C          -25.282990       52.895620       68.671370
  C           -9.813480       51.341140       66.987420
  C          -19.468160       62.764130       66.954760
  C          -24.518760       48.804110       66.936940
  C           -7.496480       46.342930       67.519960
  C            2.055330       35.108210       67.467890
  C            7.056360       49.092010       67.518170
  C          -10.334580       52.576560       67.359470
  C          -20.251910       61.671080       67.313870
  C          -23.173310       48.668710       67.270660
  C           -6.989850       45.105730       67.127100
  C            2.804600       36.217540       67.088770
  C            5.721770       49.206710       67.134270
  O          -10.367220       54.497980       63.783090
  O          -22.039380       60.694850       63.662420
  O          -21.594870       47.607430       63.917790
  O           -7.138850       43.204640       60.793210
  O            4.548930       37.027260       60.600370
  O            4.058860       50.131050       60.791420
  O          -12.352180       53.567310       64.458000
  O          -20.235560       59.519730       64.453620
  O          -21.372060       49.879220       64.187700
  O           -5.191700       44.173240       60.061650
  O            2.724180       38.254620       59.935110
  O            3.896340       47.923100       60.190980
  O          -14.945280       60.052770       64.053890
  O          -24.473760       53.946320       63.984800
  O          -14.485050       48.772110       64.313640
  O           -2.504430       37.746140       60.591700
  O            7.058850       43.738950       60.266440
  O           -2.985790       48.959060       60.327170
  O          -12.908000       60.942030       64.644780
  O          -26.227950       55.197280       64.779880
  O          -14.780760       46.604220       65.008870
  O           -4.469570       36.811960       59.861330
  O            8.920850       42.513190       69.557550
  O           -2.672620       51.133300       69.365700
  O          -10.254860       54.520090       68.825290
  O          -21.970690       60.729590       68.753600
  O          -21.466820       47.600850       68.629350
  O           -7.099570       43.182390       65.645650
  O            4.508270       37.172830       65.640470
  O            4.057500       50.172950       65.643260
  O          -12.321260       53.606030       69.232390
  O          -20.157510       59.498760       69.429410
  O          -21.302230       49.663210       69.621560
  O           -5.154070       44.104080       64.850870
  O            2.680010       38.429060       65.039430
  O            3.934970       47.979670       64.979890
  O          -14.909000       60.099820       69.027990
  O          -24.417800       53.946910       69.038640
  O          -14.365710       48.679790       69.359030
  O           -2.458770       37.671430       65.247510
  O            7.081920       43.826070       65.418850
  O           -2.977540       48.880790       65.105440
  O          -13.007370       60.891170       59.803190
  O          -26.289870       55.160360       59.739970
  O          -14.745620       46.350190       59.744250
  O           -4.493780       36.723140       64.776300
  O            8.812710       42.574100       64.577770
  O           -2.788280       51.030570       64.321010
  H           40.918170       22.610050        4.960960
  H           34.305740       24.308980        4.531460
  H           36.143930       17.832850        4.394960
  H           51.744240        9.759140        0.222910
  H           58.391920        8.025840        0.211960
  H           56.557030       14.509990        0.385590
  H           44.865280       24.176190        4.287440
  H           30.912230       26.944020        4.623850
  H           35.404360       13.638390        4.968720
  H           47.791800        8.127610        0.654800
  H           61.744670        5.337240        0.197430
  H           57.198530       18.759790        0.335520
  H           43.959630       26.508910        4.432990
  H           29.382990       24.962690        4.807140
  H           37.867310       13.246250        5.246300
  H           48.736640        5.808190        0.519200
  H           63.306350        7.293740        0.013140
  H           54.735900       19.124300        0.029670
  H           39.994190       24.946040        4.988140
  H           32.769530       22.323710        4.581540
  H           38.612770       17.427150        4.587010
  H           52.703120        7.436740        0.202600
  H           59.958510        9.986100        0.138490
  H           54.078660       14.879000        0.202210
  H           42.755880       16.997400        0.729870
  H           38.144400       28.638970        0.571770
  H           30.261030       18.855010        0.640770
  H           49.879450       15.280050        4.223020
  H           54.476820        3.547510        4.292020
  H           62.242650       13.473630        4.511550
  H           51.174020       18.114000        2.282310
  H           51.517800        3.288910        2.586360
  H           64.034620       10.938180        2.424380
  H           41.421290       14.297160        2.744060
  H           41.124660       28.977790        2.435730
  H           28.551580       21.307320        2.525530
  H           48.869860       18.297410        3.065340
  H           52.529620        1.165490        3.236780
  H           65.315700       12.848290        3.240670
  H           43.702760       14.116130        1.893330
  H           40.114900       31.074480        1.705260
  H           27.233950       19.381020        1.824730
  H           47.524390       18.264860        4.602050
  H           34.676950       32.174680        4.672230
  H           29.041060       14.064600        4.637890
  H           45.093340       14.001760        0.452400
  H           57.989560        0.112810        0.327450
  H           63.565500       18.205850        0.410980
  H           46.740930       20.475720        0.268510
  H           33.077330       30.282660        0.253180
  H           31.477690       13.749680        0.207680
  H           46.018490       11.800340        4.755470
  H           59.566590        2.129530        4.738740
  H           61.203670       18.557200        4.715940
  H           47.709100       15.103160        0.421640
  H           55.742270        1.830860        0.450110
  H           63.412100       15.383240        0.326950
  H           45.004890       17.092850        4.714950
  H           37.011620       30.626680        4.651920
  H           29.408810       16.879590        4.570780
  H           44.750250       18.145800        1.312890
  H           36.154280       29.980790        1.276350
  H           30.314870       16.438400        1.274360
  H           47.875520       14.177510        3.734280
  H           56.630720        2.398200        3.716760
  H           62.412650       15.699740        3.715370
  H           43.817930       20.322900        2.009510
  H           34.746970       28.050600        1.900890
  H           32.649040       16.279580        2.037390
  H           48.817720       12.001260        3.063550
  H           57.996770        4.316860        2.977430
  H           60.042630       15.923620        3.070120
  H           40.984170       22.671410        9.080340
  H           34.365540       24.324990        9.701790
  H           36.088410       17.554950        0.248200
  H           51.720040        9.675420        4.839590
  H           58.375400        8.195160        5.279750
  H           56.600620       14.520220        5.185370
  H           44.808050       24.103930        0.052670
  H           30.964910       26.947450        9.503670
  H           35.586440       13.505570        9.158690
  H           47.817260        8.062170        5.632490
  H           61.691520        5.460960        5.247390
  H           57.175070       18.779730        5.140560
  H           43.860570       26.418950        0.243220
  H           29.437120       24.966750        9.683870
  H           38.049030       13.097650        9.396640
  H           48.749580        5.741700        5.486430
  H           63.280000        7.392560        5.053450
  H           54.707400       19.103890        4.828150
  H           40.058080       24.994740        9.179600
  H           32.833580       22.337280        9.769790
  H           38.566050       17.171610        0.371460
  H           52.676690        7.356410        4.798580
  H           59.970680       10.132470        5.199000
  H           54.121830       14.847890        4.992620
  H           42.688610       17.282940        5.569570
  H           38.041970       28.505650        5.402700
  H           30.747550       18.834280        5.272880
  H           50.137510       14.984310        9.602430
  H           54.809490        4.055140        9.747490
  H           62.195160       13.522790        9.466630
  H           51.426080       17.628560        7.478020
  H           51.859330        3.649490        7.705820
  H           64.033990       11.052420        7.581670
  H           41.484990       14.442310        7.564240
  H           41.054750       28.897130        7.281100
  H           29.023450       21.266880        7.235700
  H           49.183940       17.845090        8.416470
  H           52.900990        1.627790        8.584830
  H           65.325860       12.971930        8.362610
  H           43.747910       14.276920        6.693000
  H           40.046590       30.975060        6.501250
  H           27.676130       19.391710        6.434140
  H           47.716270       18.342630        9.588190
  H           34.608640       32.271690        9.604020
  H           29.180380       14.134870        9.612380
  H           45.183720       14.032180        5.402700
  H           58.166300        0.194170        5.361090
  H           63.571640       18.286520        5.356010
  H           46.630990       20.482290        5.261330
  H           33.215710       30.260640        5.258540
  H           31.399160       13.839360        5.357110
  H           46.077540       11.852350        9.787410
  H           59.511900        2.088890        9.588890
  H           61.272390       18.572940        9.768200
  H           47.586000       15.522100        5.167250
  H           55.503790        1.455770        5.160180
  H           63.581520       15.420180        5.287410
  H           45.159390       16.910470        9.787210
  H           37.219710       30.842910        9.740320
  H           28.952370       17.035390        9.806430
  H           44.806400       18.104930        6.423590
  H           36.293770       29.965030        6.382870
  H           30.280990       16.753420        6.380880
  H           48.031630       14.145300        8.631520
  H           56.440030        2.493910        8.563420
  H           62.376910       15.769610        8.639990
  H           43.896550       20.293690        7.086460
  H           34.895140       28.033040        7.024330
  H           32.670230       16.495620        6.976540
  H           48.917380       11.950420        7.928230
  H           57.785330        4.454010        7.888710
  H           60.018700       15.980890        7.948640
  C           41.566920       23.474400        4.836410
  C           33.226420       24.434090        4.575960
  C           36.537640       16.835800        4.577550
  C           51.103550        8.883440        0.296990
  C           59.469490        7.883400        0.177710
  C           56.138830       15.511830        0.320880
  C           43.807350       24.349080        4.464650
  C           31.311600       25.933710        4.636090
  C           36.108400       14.463570        4.906400
  C           48.859670        7.969650        0.532450
  C           61.360480        6.352850        0.163280
  C           56.515710       17.915680        0.285340
  C           43.399860       21.850680        4.489640
  C           33.656250       26.865180        4.436180
  C           34.196370       16.059640        4.434190
  C           49.233540       10.470240        0.580830
  C           58.999670        5.466520        0.404310
  C           58.452570       16.309160        0.616270
  C           42.936380       23.256330        4.612100
  C           32.699660       25.735820        4.560830
  C           35.635450       15.762190        4.657500
  C           49.722000        9.075200        0.454390
  C           59.974910        6.573890        0.229090
  C           57.014430       16.606940        0.393860
  C           43.307720       25.645040        4.536830
  C           30.460350       24.836360        4.731170
  C           37.473560       14.242620        5.058820
  C           49.381570        6.682100        0.463650
  C           62.229330        7.435690        0.066800
  C           55.148410       18.122030        0.120960
  C           41.059040       24.770610        4.857910
  C           32.372790       23.335000        4.613000
  C           37.905410       16.608750        4.691050
  C           51.630750        7.595640        0.279760
  C           60.340650        8.968550        0.130920
  C           54.767590       15.719240        0.211270
  C           41.464520       27.271340        4.676520
  C           30.016200       22.407530        4.704990
  C           39.828450       14.983110        4.968230
  C           51.264830        5.092580        0.410090
  C           62.720680        9.852200        0.124650
  C           52.811600       17.316010        0.076860
  C           41.931070       25.860740        4.704990
  C           30.984600       23.533910        4.694930
  C           38.379340       15.307440        4.926510
  C           50.768890        6.490830        0.369070
  C           61.727160        8.747040        0.086420
  C           54.267910       17.028120        0.119670
  C           42.924350       16.608560        4.750290
  C           38.474510       29.069580        4.580240
  C           29.984370       18.933740        4.505370
  C           49.775180       15.633730        0.408790
  C           54.259360        3.359880        0.559620
  C           62.798600       13.335770        0.338800
  C           46.720420       16.703550        2.453550
  C           54.953450        0.125010        2.478140
  C           65.150560       15.484890        2.454340
  C           45.909720       15.599690        2.582680
  C           37.762330       32.225510        2.543150
  C           27.526210       16.741680        2.547730
  C           50.413800       17.453140        1.874510
  C           52.445820        2.969000        2.118930
  C           63.894520       11.913090        1.965010
  C           42.205640       14.915950        3.172470
  C           40.224990       29.339790        2.926460
  C           28.741060       20.335870        2.973850
  C           49.096900       17.543970        2.320240
  C           53.035280        1.763200        2.487800
  C           64.617290       13.011880        2.427460
  C           43.509810       14.821310        2.693190
  C           39.635670       30.531370        2.511190
  C           27.997960       19.226310        2.576600
  C           44.544600       15.645940        3.182230
  C           38.433000       31.003560        3.074900
  C           28.253280       17.933880        3.082370
  C           48.093850       16.659360        1.870830
  C           54.273430        1.346080        1.957340
  C           64.427340       14.304110        1.895120
  C           46.755330       18.732430        3.990750
  C           34.658080       31.302690        4.022010
  C           29.826290       14.500550        4.024000
  C           45.861920       13.546200        1.072560
  C           58.031550        1.001370        0.953780
  C           62.802290       17.754550        1.041000
  C           46.245350       19.972200        4.383110
  C           33.846640       30.220880        4.374850
  C           31.151660       14.387500        4.452410
  C           46.375230       12.301090        0.698610
  C           58.822780        2.075600        0.538720
  C           61.461390       17.904560        0.679590
  C           46.391070       14.243710        2.172190
  C           57.229200        1.094140        2.104890
  C           63.170250       16.964550        2.144510
  C           46.230300       18.053180        2.877670
  C           35.495850       31.241050        2.894400
  C           29.497110       15.248650        2.879960
  C           47.438180       11.767300        1.417630
  C           58.793040        3.258680        1.268590
  C           60.485230       17.239020        1.412750
  C           45.189820       20.525350        3.667380
  C           33.890620       29.066180        3.603360
  C           32.150660       15.045480        3.742650
  C           48.462580       15.744280        0.860790
  C           54.834500        2.151610        0.943730
  C           63.531850       14.421740        0.811210
  C           44.223040       16.499310        4.257770
  C           37.898570       30.262000        4.148450
  C           29.230220       17.836010        4.096780
  C           50.747160       16.474510        0.942630
  C           53.079620        3.768930        1.172220
  C           62.974820       12.090130        0.933970
  C           41.918630       15.833280        4.181110
  C           39.626890       28.609780        3.950530
  C           29.748750       20.173320        3.919960
  C           45.174110       18.652210        2.173690
  C           35.508910       30.054920        2.144420
  C           30.539660       15.861790        2.166720
  C           47.450280       13.658920        2.882150
  C           57.244030        2.298750        2.826400
  C           62.151880       16.320510        2.864830
  C           44.643890       19.879370        2.560870
  C           34.719660       28.963390        2.490880
  C           31.862010       15.775790        2.591740
  C           47.987120       12.431550        2.509900
  C           58.011740        3.385590        2.415120
  C           60.813430       16.441840        2.505720
  C           41.624200       23.518880        9.314500
  C           33.285140       24.447410        9.689640
  C           36.514660       16.571800        0.062220
  C           51.087460        8.803520        4.989030
  C           59.451480        8.038510        5.242410
  C           56.169620       15.516560        5.118760
  C           43.841260       24.361540        9.841470
  C           31.368990       25.942200        9.584710
  C           36.257470       14.314350        9.434770
  C           48.873280        7.902950        5.430380
  C           61.322550        6.482410        5.216930
  C           56.506120       17.924960        5.087000
  C           43.470280       21.882290        9.385890
  C           33.725250       26.870040        9.457370
  C           34.296250       15.920860        9.516510
  C           49.259550       10.415470        5.397230
  C           58.957840        5.626550        5.479460
  C           58.472000       16.352710        5.431280
  C           42.994520       23.287090        9.523480
  C           32.759970       25.746830        9.585700
  C           35.741110       15.600550        9.661570
  C           49.723990        9.008410        5.258340
  C           59.941540        6.723540        5.296180
  C           57.028600       16.625920        5.200100
  C           43.226840       25.572300       -0.010250
  C           30.517740       24.845490        9.679690
  C           37.625160       14.085770        9.558920
  C           49.390090        6.611130        5.352430
  C           62.206170        7.552290        5.112790
  C           55.135280       18.107730        4.917650
  C           41.110580       24.811220        9.377320
  C           32.432700       23.347080        9.734640
  C           37.888920       16.354430        0.136500
  C           51.613240        7.514660        4.958370
  C           60.337790        9.110070        5.189250
  C           54.795190       15.701040        5.002570
  C           41.483170       27.301420        9.707660
  C           30.063460       22.424440        9.701690
  C           39.952020       14.839510        9.845850
  C           51.269890        5.010560        5.204480
  C           62.721270        9.968180        5.174110
  C           52.805830       17.271010        4.905200
  C           41.957460       25.888530        9.690240
  C           31.041810       23.543990        9.724490
  C           38.496200       15.146530        9.857800
  C           50.766410        6.410640        5.149620
  C           61.721290        8.869160        5.138270
  C           54.269960       17.000900        4.913270
  C           43.058750       16.483700        9.798360
  C           38.610820       29.213990        9.636880
  C           29.777240       19.013600        9.677700
  C           49.711900       15.820510        5.151220
  C           54.149640        3.119610        5.235240
  C           62.908210       13.388070        5.366560
  C           46.830740       16.701460        7.493260
  C           54.997900        0.163350        7.493660
  C           65.188350       15.596780        7.476030
  C           46.020710       15.594170        7.554980
  C           56.365360        0.036070        7.501420
  C           27.521370       16.833430        7.508190
  C           50.585320       17.157490        6.974450
  C           52.663940        3.175420        7.148180
  C           63.924870       12.013170        7.084170
  C           42.285920       14.987450        8.056570
  C           40.211660       29.320450        7.821510
  C           29.015390       20.332050        7.790440
  C           49.300830       17.278930        7.500030
  C           53.256690        2.011160        7.635630
  C           64.656500       13.115320        7.523220
  C           43.584770       14.901720        7.562650
  C           39.626950       30.507340        7.383140
  C           28.243310       19.260180        7.348900
  C           44.645590       15.630270        8.134420
  C           38.499050       31.057490        8.022320
  C           28.246660       18.029740        8.031970
  C           48.198680       16.645240        6.896800
  C           54.318290        1.383330        6.956430
  C           64.499270       14.386840        6.939010
  C           46.916610       18.775500        8.992820
  C           34.644810       31.374530        8.991730
  C           29.931700       14.605510        8.981870
  C           45.955520       13.563620        6.008920
  C           58.120290        1.092280        5.971690
  C           62.806130       17.828060        5.976570
  C           46.409870       20.022290        9.375630
  C           33.839970       30.291850        9.356720
  C           31.279050       14.444340        9.317990
  C           46.438080       12.311590        5.616860
  C           58.897550        2.189680        5.592270
  C           61.470000       17.967870        5.589080
  C           46.512980       14.249800        7.102680
  C           57.230590        1.174870        7.056890
  C           63.166130       17.035160        7.081080
  C           46.347770       18.053120        7.928830
  C           35.545550       31.278800        7.916980
  C           29.546530       15.421500        7.903440
  C           47.510370       11.753040        6.301030
  C           58.762140        3.389200        6.281020
  C           60.481370       17.293100        6.295950
  C           45.315610       20.550280        8.698530
  C           33.948750       29.097060        8.654920
  C           32.249130       15.123130        8.589710
  C           48.431980       15.954960        5.690830
  C           54.722080        1.947670        5.730950
  C           63.654200       14.475780        5.814480
  C           44.351850       16.391360        9.283640
  C           38.041360       30.404320        9.184480
  C           28.992450       17.951970        9.225500
  C           50.781860       16.408590        5.817570
  C           53.127740        3.728420        5.956260
  C           63.028340       12.172000        6.031820
  C           42.030350       15.788220        9.167750
  C           39.682140       28.669790        8.932690
  C           29.793400       20.191360        8.935580
  C           45.262920       18.636880        7.251630
  C           35.608240       30.059870        7.218970
  C           30.557630       16.099850        7.201150
  C           47.579910       13.638670        7.784170
  C           57.131730        2.403950        7.732100
  C           62.132760       16.387750        7.782380
  C           44.741820       19.872300        7.623680
  C           34.824480       28.966820        7.578080
  C           31.903080       15.964450        7.534870
  C           48.086550       12.401470        7.391310
  C           57.881000        3.513280        7.352980
  C           60.798160       16.502450        7.398480
  O           44.709170       21.793720        4.047300
  O           33.037010       27.990590        3.926630
  O           33.481520       14.903170        4.182000
  O           47.937540       10.500380        1.057420
  O           59.625330        4.323000        0.864580
  O           59.135260       17.426790        1.055630
  O           42.724210       20.863050        4.722210
  O           34.840840       26.815470        4.717830
  O           33.704340       17.174960        4.451910
  O           49.884700       11.468980        0.325860
  O           57.800570        5.550360        0.199320
  O           58.972730       15.218840        0.455190
  O           40.131110       27.348510        4.318100
  O           30.602640       21.242060        4.249010
  O           40.591340       16.067850        4.577850
  O           52.571960        5.041880        0.855910
  O           62.135250       11.034690        0.530650
  O           52.090610       16.254800        0.591380
  O           42.168390       28.237770        4.908990
  O           28.848440       22.493020        5.044090
  O           40.295630       13.899960        5.273080
  O           50.606830        4.107700        0.125540
  O           63.997250        9.808930        9.821760
  O           52.403770       18.429040        9.629910
  O           44.821540       21.815830        9.089500
  O           33.105710       28.025330        9.017810
  O           33.609570       14.896590        8.893560
  O           47.976830       10.478130        5.909860
  O           59.584670        4.468570        5.904680
  O           59.133900       17.468690        5.907470
  O           42.755130       20.901770        9.496600
  O           34.918880       26.794500        9.693630
  O           33.774160       16.958950        9.885780
  O           49.922320       11.399820        5.115080
  O           57.756410        5.724800        5.303640
  O           59.011370       15.275410        5.244110
  O           40.167390       27.395560        9.292200
  O           30.658590       21.242650        9.302850
  O           40.710680       15.975530        9.623240
  O           52.617620        4.967170        5.511720
  O           62.158320       11.121810        5.683060
  O           52.098850       16.176530        5.369650
  O           42.069020       28.186910        0.067400
  O           28.786530       22.456100        0.004180
  O           40.330780       13.645930        0.008460
  O           50.582610        4.018880        5.040510
  O           63.889100        9.869840        4.841980
  O           52.288110       18.326310        4.585220
  H           41.010090       22.687440       14.916920
  H           34.397660       24.386370       14.487420
  H           36.235850       17.910240       14.350930
  H           51.836160        9.836530       10.178880
  H           58.483840        8.103230       10.167930
  H           56.648940       14.587380       10.341560
  H           44.957190       24.253580       14.243400
  H           31.004150       27.021410       14.579810
  H           35.496280       13.715780       14.924690
  H           47.883710        8.205000       10.610770
  H           61.836590        5.414630       10.153390
  H           57.290450       18.837180       10.291480
  H           44.051550       26.586300       14.388960
  H           29.474910       25.040080       14.763100
  H           37.959220       13.323640       15.202260
  H           48.828550        5.885580       10.475170
  H           63.398270        7.371130        9.969110
  H           54.827820       19.201690        9.985630
  H           40.086100       25.023430       14.944100
  H           32.861450       22.401100       14.537500
  H           38.704690       17.504550       14.542980
  H           52.795040        7.514130       10.158570
  H           60.050430       10.063490       10.094450
  H           54.170580       14.956390       10.158170
  H           42.847790       17.074790       10.685840
  H           38.236320       28.716360       10.527740
  H           30.352950       18.932400       10.596730
  H           49.971360       15.357440       14.178990
  H           54.568740        3.624910       14.247980
  H           62.334560       13.551020       14.467510
  H           51.265940       18.191400       12.238270
  H           51.609720        3.366300       12.542330
  H           64.126540       11.015570       12.380340
  H           41.513210       14.374560       12.700030
  H           41.216580       29.055180       12.391690
  H           28.643500       21.384710       12.481490
  H           48.961780       18.374800       13.021310
  H           52.621530        1.242880       13.192750
  H           65.407620       12.925680       13.196630
  H           43.794680       14.193520       11.849290
  H           40.206820       31.151870       11.661220
  H           27.325870       19.458410       11.780690
  H           47.616310       18.342260       14.558010
  H           34.768870       32.252070       14.628200
  H           29.132980       14.142000       14.593850
  H           45.185260       14.079160       10.408360
  H           58.081480        0.190200       10.283420
  H           63.657420       18.283240       10.366950
  H           46.832850       20.553110       10.224480
  H           33.169250       30.360050       10.209150
  H           31.569610       13.827070       10.163650
  H           46.110400       11.877730       14.711430
  H           59.658510        2.206920       14.694710
  H           61.295590       18.634590       14.671910
  H           47.801020       15.180550       10.377600
  H           55.834190        1.908250       10.406070
  H           63.504020       15.460630       10.282920
  H           45.096810       17.170250       14.670910
  H           37.103540       30.704070       14.607890
  H           29.500730       16.956990       14.526750
  H           44.842170       18.223190       11.268860
  H           36.246200       30.058180       11.232320
  H           30.406790       16.515790       11.230330
  H           47.967440       14.254900       13.690250
  H           56.722640        2.475590       13.672730
  H           62.504560       15.777130       13.671330
  H           43.909850       20.400290       11.965480
  H           34.838880       28.128000       11.856860
  H           32.740960       16.356970       11.993350
  H           48.909640       12.078660       13.019510
  H           58.088680        4.394250       12.933400
  H           60.134540       16.001010       13.026090
  H           41.076080       22.748800       19.036300
  H           34.457460       24.402380       19.657750
  H           36.180330       17.632340       10.204170
  H           51.811960        9.752810       14.795560
  H           58.467320        8.272550       15.235710
  H           56.692540       14.597610       15.141330
  H           44.899960       24.181330       10.008630
  H           31.056820       27.024850       19.459630
  H           35.678360       13.582960       19.114660
  H           47.909180        8.139560       15.588450
  H           61.783430        5.538360       15.203360
  H           57.266980       18.857120       15.096530
  H           43.952490       26.496340       10.199190
  H           29.529040       25.044140       19.639830
  H           38.140950       13.175040       19.352600
  H           48.841500        5.819090       15.442400
  H           63.371920        7.469950       15.009410
  H           54.799320       19.181280       14.784110
  H           40.150000       25.072130       19.135560
  H           32.925490       22.414670       19.725750
  H           38.657970       17.249000       10.327420
  H           52.768610        7.433800       14.754540
  H           60.062600       10.209860       15.154970
  H           54.213750       14.925280       14.948580
  H           42.780520       17.360330       15.525530
  H           38.133890       28.583040       15.358670
  H           30.839470       18.911670       15.228840
  H           50.229430       15.061700       19.558390
  H           54.901400        4.132530       19.703450
  H           62.287080       13.600180       19.422590
  H           51.518000       17.705950       17.433990
  H           51.951250        3.726880       17.661780
  H           64.125910       11.129810       17.537630
  H           41.576900       14.519710       17.520210
  H           41.146670       28.974530       17.237060
  H           29.115370       21.344280       17.191660
  H           49.275860       17.922480       18.372440
  H           52.992900        1.705180       18.540790
  H           65.417780       13.049320       18.318580
  H           43.839830       14.354310       16.648960
  H           40.138510       31.052450       16.457210
  H           27.768050       19.469100       16.390110
  H           47.808180       18.420030       19.544160
  H           34.700560       32.349080       19.559990
  H           29.272290       14.212260       19.568350
  H           45.275630       14.109580       15.358670
  H           58.258210        0.271560       15.317050
  H           63.663560       18.363910       15.311980
  H           46.722910       20.559680       15.217290
  H           33.307620       30.338030       15.214510
  H           31.491080       13.916750       15.313070
  H           46.169450       11.929750       19.743380
  H           59.603810        2.166280       19.544850
  H           61.364310       18.650330       19.724160
  H           47.677920       15.599490       15.123210
  H           55.595700        1.533160       15.116140
  H           63.673440       15.497580       15.243380
  H           45.251310       16.987860       19.743180
  H           37.311630       30.920300       19.696280
  H           29.044280       17.112780       19.762390
  H           44.898310       18.182320       16.379550
  H           36.385690       30.042420       16.338830
  H           30.372910       16.830810       16.336840
  H           48.123550       14.222690       18.587490
  H           56.531950        2.571300       18.519390
  H           62.468830       15.847000       18.595950
  H           43.988470       20.371080       17.042420
  H           34.987060       28.110430       16.980300
  H           32.762140       16.573010       16.932510
  H           49.009300       12.027810       17.884200
  H           57.877250        4.531400       17.844670
  H           60.110620       16.058280       17.904610
  C           41.658840       23.551790       14.792370
  C           33.318340       24.511480       14.531930
  C           36.629560       16.913190       14.533520
  C           51.195470        8.960830       10.252950
  C           59.561410        7.960790       10.133680
  C           56.230750       15.589220       10.276850
  C           43.899270       24.426470       14.420620
  C           31.403520       26.011110       14.592060
  C           36.200320       14.540960       14.862360
  C           48.951590        8.047050       10.488410
  C           61.452400        6.430250       10.119240
  C           56.607630       17.993070       10.241300
  C           43.491780       21.928070       14.445610
  C           33.748170       26.942580       14.392140
  C           34.288290       16.137030       14.390150
  C           49.325460       10.547630       10.536800
  C           59.091590        5.543910       10.360280
  C           58.544490       16.386550       10.572240
  C           43.028300       23.333720       14.568070
  C           32.791570       25.813210       14.516790
  C           35.727370       15.839580       14.613460
  C           49.813920        9.152590       10.410360
  C           60.066830        6.651280       10.185050
  C           57.106340       16.684330       10.349820
  C           43.399630       25.722430       14.492800
  C           30.552270       24.913750       14.687140
  C           37.565470       14.320010       15.014790
  C           49.473490        6.759490       10.419610
  C           62.321250        7.513080       10.022770
  C           55.240330       18.199420       10.076930
  C           41.150950       24.848000       14.813880
  C           32.464700       23.412390       14.568960
  C           37.997320       16.686140       14.647020
  C           51.722670        7.673030       10.235730
  C           60.432570        9.045940       10.086890
  C           54.859510       15.796640       10.167230
  C           41.556440       27.348730       14.632480
  C           30.108120       22.484920       14.660950
  C           39.920360       15.060500       14.924190
  C           51.356750        5.169970       10.366050
  C           62.812600        9.929590       10.080610
  C           52.903520       17.393400       10.032820
  C           42.022990       25.938130       14.660950
  C           31.076520       23.611300       14.650900
  C           38.471260       15.384830       14.882480
  C           50.860810        6.568220       10.325030
  C           61.819080        8.824430       10.042380
  C           54.359830       17.105510       10.075640
  C           43.016270       16.685950       14.706250
  C           38.566420       29.146970       14.536210
  C           30.076290       19.011130       14.461340
  C           49.867100       15.711120       10.364760
  C           54.351280        3.437270       10.515590
  C           62.890520       13.413160       10.294770
  C           46.812340       16.780940       12.409510
  C           55.045370        0.202400       12.434100
  C           65.242480       15.562280       12.410310
  C           46.001630       15.677080       12.538640
  C           37.854250       32.302900       12.499120
  C           27.618130       16.819070       12.503700
  C           50.505720       17.530530       11.830470
  C           52.537740        3.046390       12.074890
  C           63.986440       11.990480       11.920970
  C           42.297550       14.993350       13.128430
  C           40.316910       29.417180       12.882420
  C           28.832980       20.413260       12.929810
  C           49.188820       17.621370       12.276200
  C           53.127200        1.840590       12.443760
  C           64.709200       13.089270       12.383430
  C           43.601730       14.898700       12.649150
  C           39.727590       30.608760       12.467160
  C           28.089880       19.303700       12.532570
  C           44.636510       15.723330       13.138190
  C           38.524920       31.080950       13.030860
  C           28.345190       18.011270       13.038330
  C           48.185770       16.736760       11.826790
  C           54.365350        1.423470       11.913310
  C           64.519260       14.381500       11.851080
  C           46.847250       18.809820       13.946710
  C           34.750000       31.380080       13.977980
  C           29.918210       14.577940       13.979970
  C           45.953840       13.623590       11.028520
  C           58.123470        1.078760       10.909750
  C           62.894210       17.831940       10.996960
  C           46.337270       20.049590       14.339080
  C           33.938560       30.298270       14.330820
  C           31.243580       14.464890       14.408370
  C           46.467140       12.378480       10.654570
  C           58.914690        2.152990       10.494680
  C           61.553310       17.981950       10.635560
  C           46.482990       14.321100       12.128160
  C           57.321110        1.171530       12.060860
  C           63.262170       17.041940       12.100480
  C           46.322220       18.130580       12.833640
  C           35.587760       31.318440       12.850360
  C           29.589020       15.326040       12.835930
  C           47.530100       11.844700       11.373590
  C           58.884950        3.336070       11.224550
  C           60.577150       17.316420       11.368720
  C           45.281740       20.602750       13.623340
  C           33.982540       29.143570       13.559330
  C           32.242580       15.122870       13.698610
  C           48.554500       15.821670       10.816760
  C           54.926420        2.229000       10.899690
  C           63.623760       14.499130       10.767180
  C           44.314960       16.576700       14.213730
  C           37.990480       30.339390       14.104420
  C           29.322140       17.913410       14.052740
  C           50.839070       16.551900       10.898600
  C           53.171530        3.846320       11.128180
  C           63.066740       12.167530       10.889930
  C           42.010550       15.910670       14.137070
  C           39.718810       28.687170       13.906490
  C           29.840670       20.250710       13.875930
  C           45.266020       18.729600       12.129650
  C           35.600830       30.132310       12.100380
  C           30.631580       15.939180       12.122680
  C           47.542200       13.736310       12.838120
  C           57.335950        2.376140       12.782360
  C           62.243800       16.397900       12.820790
  C           44.735800       19.956760       12.516840
  C           34.811580       29.040780       12.446850
  C           31.953930       15.853180       12.547700
  C           48.079040       12.508950       12.465860
  C           58.103660        3.462980       12.371080
  C           60.905350       16.519240       12.461680
  C           41.716120       23.596270       19.270470
  C           33.377060       24.524800       19.645610
  C           36.606580       16.649190       10.018190
  C           51.179380        8.880920       14.945000
  C           59.543390        8.115900       15.198380
  C           56.261540       15.593950       15.074720
  C           43.933180       24.438930       19.797440
  C           31.460900       26.019590       19.540670
  C           36.349390       14.391750       19.390740
  C           48.965190        7.980340       15.386350
  C           61.414470        6.559800       15.172890
  C           56.598040       18.002350       15.042970
  C           43.562200       21.959680       19.341850
  C           33.817170       26.947430       19.413340
  C           34.388170       15.998250       19.472470
  C           49.351460       10.492860       15.353190
  C           59.049760        5.703940       15.435430
  C           58.563920       16.430100       15.387240
  C           43.086440       23.364480       19.479440
  C           32.851890       25.824220       19.541670
  C           35.833030       15.677950       19.617530
  C           49.815910        9.085800       15.214310
  C           60.033460        6.800930       15.252140
  C           57.120520       16.703310       15.156060
  C           43.318760       25.649690        9.945710
  C           30.609660       24.922880       19.635650
  C           37.717080       14.163160       19.514890
  C           49.482010        6.688520       15.308390
  C           62.298090        7.629680       15.068750
  C           55.227200       18.185120       14.873610
  C           41.202500       24.888610       19.333290
  C           32.524610       23.424480       19.690610
  C           37.980830       16.431830       10.092460
  C           51.705160        7.592050       14.914330
  C           60.429710        9.187460       15.145210
  C           54.887100       15.778430       14.958540
  C           41.575090       27.378810       19.663630
  C           30.155380       22.501840       19.657650
  C           40.043940       14.916900       19.801820
  C           51.361810        5.087950       15.160450
  C           62.813190       10.045570       15.130080
  C           52.897750       17.348400       14.861170
  C           42.049370       25.965930       19.646210
  C           31.133730       23.621380       19.680450
  C           38.588110       15.223920       19.813760
  C           50.858330        6.488030       15.105590
  C           61.813200        8.946560       15.094240
  C           54.361880       17.078290       14.869230
  C           43.150670       16.561090       19.754330
  C           38.702740       29.291380       19.592840
  C           29.869160       19.090990       19.633660
  C           49.803820       15.897900       15.107180
  C           54.241560        3.197000       15.191210
  C           63.000130       13.465460       15.322530
  C           46.922660       16.778850       17.449220
  C           55.089820        0.240740       17.449620
  C           65.280260       15.674180       17.432000
  C           46.112630       15.671570       17.510950
  C           56.457280        0.113460       17.457390
  C           27.613290       16.910830       17.464160
  C           50.677240       17.234880       16.930420
  C           52.755860        3.252810       17.104150
  C           64.016790       12.090560       17.040130
  C           42.377840       15.064840       18.012530
  C           40.303580       29.397850       17.777470
  C           29.107310       20.409440       17.746410
  C           49.392750       17.356320       17.455990
  C           53.348600        2.088550       17.591590
  C           64.748420       13.192710       17.479190
  C           43.676680       14.979110       17.518620
  C           39.718870       30.584740       17.339110
  C           28.335230       19.337580       17.304860
  C           44.737510       15.707660       18.090390
  C           38.590970       31.134880       17.978280
  C           28.338580       18.107130       17.987940
  C           48.290600       16.722630       16.852760
  C           54.410210        1.460720       16.912400
  C           64.591190       14.464230       16.894970
  C           47.008520       18.852890       18.948790
  C           34.736730       31.451920       18.947690
  C           30.023620       14.682900       18.937840
  C           46.047430       13.641010       15.964890
  C           58.212200        1.169670       15.927650
  C           62.898050       17.905450       15.932530
  C           46.501790       20.099680       19.331600
  C           33.931890       30.369240       19.312680
  C           31.370960       14.521730       19.273950
  C           46.530000       12.388980       15.572820
  C           58.989470        2.267070       15.548230
  C           61.561920       18.045260       15.545040
  C           46.604900       14.327190       17.058650
  C           57.322500        1.252260       17.012850
  C           63.258050       17.112550       17.037050
  C           46.439690       18.130510       17.884800
  C           35.637470       31.356200       17.872950
  C           29.638450       15.498890       17.859410
  C           47.602290       11.830430       16.257000
  C           58.854060        3.466590       16.236980
  C           60.573290       17.370490       16.251920
  C           45.407530       20.627670       18.654490
  C           34.040670       29.174450       18.610880
  C           32.341050       15.200520       18.545670
  C           48.523890       16.032350       15.646790
  C           54.814000        2.025060       15.686920
  C           63.746120       14.553170       15.770450
  C           44.443770       16.468760       19.239600
  C           38.133280       30.481710       19.140440
  C           29.084370       18.029360       19.181460
  C           50.873780       16.485980       15.773530
  C           53.219650        3.805810       15.912220
  C           63.120260       12.249390       15.987790
  C           42.122270       15.865610       19.123720
  C           39.774050       28.747180       18.888660
  C           29.885320       20.268750       18.891540
  C           45.354840       18.714270       17.207590
  C           35.700150       30.137260       17.174940
  C           30.649550       16.177240       17.157110
  C           47.671830       13.716060       17.740140
  C           57.223650        2.481340       17.688070
  C           62.224670       16.465150       17.738340
  C           44.833740       19.949690       17.579650
  C           34.916400       29.044220       17.534050
  C           31.995000       16.041850       17.490840
  C           48.178470       12.478860       17.347270
  C           57.972910        3.590670       17.308940
  C           60.890080       16.579840       17.354440
  O           44.801090       21.871120       14.003260
  O           33.128930       28.067980       13.882600
  O           33.573440       14.980560       14.137970
  O           48.029460       10.577770       11.013390
  O           59.717250        4.400390       10.820540
  O           59.227180       17.504180       11.011600
  O           42.816130       20.940440       14.678180
  O           34.932750       26.892860       14.673800
  O           33.796250       17.252350       14.407870
  O           49.976620       11.546370       10.281820
  O           57.892490        5.627750       10.155280
  O           59.064650       15.296230       10.411150
  O           40.223030       27.425900       14.274070
  O           30.694550       21.319450       14.204970
  O           40.683260       16.145240       14.533820
  O           52.663880        5.119270       10.811880
  O           62.227170       11.112080       10.486620
  O           52.182530       16.332190       10.547350
  O           42.260310       28.315160       14.864950
  O           28.940360       22.570410       15.000050
  O           40.387550       13.977350       15.229040
  O           50.698740        4.185090       10.081510
  O           64.089160        9.886320       19.777720
  O           52.495690       18.506430       19.585870
  O           44.913460       21.893220       19.045460
  O           33.197630       28.102720       18.973780
  O           33.701490       14.973980       18.849530
  O           48.068750       10.555520       15.865830
  O           59.676590        4.545960       15.860650
  O           59.225820       17.546080       15.863440
  O           42.847050       20.979160       19.452560
  O           35.010800       26.871890       19.649590
  O           33.866080       17.036340       19.841740
  O           50.014240       11.477210       15.071040
  O           57.848330        5.802190       15.259610
  O           59.103290       15.352800       15.200070
  O           40.259310       27.472950       19.248170
  O           30.750510       21.320040       19.258820
  O           40.802600       16.052920       19.579200
  O           52.709540        5.044560       15.467690
  O           62.250240       11.199200       15.639030
  O           52.190770       16.253920       15.325620
  O           42.160940       28.264300       10.023370
  O           28.878440       22.533490        9.960150
  O           40.422700       13.723320        9.964430
  O           50.674530        4.096270       14.996470
  O           63.981020        9.947240       14.797950
  O           52.380030       18.403700       14.541180
  H           41.102000       22.764830       24.872890
  H           34.489580       24.463760       24.443390
  H           36.327770       17.987630       24.306890
  H           51.928070        9.913920       20.134840
  H           58.575750        8.180620       20.123890
  H           56.740860       14.664770       20.297520
  H           45.049110       24.330970       24.199370
  H           31.096060       27.098800       24.535780
  H           35.588200       13.793170       24.880650
  H           47.975630        8.282400       20.566730
  H           61.928510        5.492020       20.109360
  H           57.382360       18.914570       20.247450
  H           44.143460       26.663690       24.344920
  H           29.566830       25.117470       24.719070
  H           38.051140       13.401030       25.158230
  H           48.920470        5.962970       20.431130
  H           63.490190        7.448520       19.925070
  H           54.919730       19.279080       19.941600
  H           40.178020       25.100820       24.900070
  H           32.953370       22.478490       24.493470
  H           38.796610       17.581940       24.498940
  H           52.886950        7.591530       20.114530
  H           60.142350       10.140880       20.050420
  H           54.262500       15.033780       20.114140
  H           42.939710       17.152180       20.641800
  H           38.328240       28.793750       20.483700
  H           30.444870       19.009800       20.552700
  H           50.063280       15.434830       24.134950
  H           54.660660        3.702300       24.203950
  H           62.426480       13.628420       24.423480
  H           51.357850       18.268790       22.194240
  H           51.701630        3.443690       22.498290
  H           64.218460       11.092960       22.336310
  H           41.605130       14.451950       22.655990
  H           41.308490       29.132570       22.347660
  H           28.735410       21.462110       22.437460
  H           49.053700       18.452190       22.977270
  H           52.713450        1.320270       23.148710
  H           65.499540       13.003080       23.152600
  H           43.886600       14.270920       21.805260
  H           40.298740       31.229260       21.617190
  H           27.417790       19.535800       21.736660
  H           47.708230       18.419650       24.513980
  H           34.860790       32.329460       24.584160
  H           29.224900       14.219390       24.549820
  H           45.277170       14.156550       20.364330
  H           58.173390        0.267590       20.239380
  H           63.749330       18.360630       20.322910
  H           46.924770       20.630500       20.180440
  H           33.261170       30.437440       20.165110
  H           31.661530       13.904460       20.119610
  H           46.202320       11.955130       24.667400
  H           59.750420        2.284310       24.650670
  H           61.387510       18.711980       24.627870
  H           47.892940       15.257950       20.333560
  H           55.926100        1.985640       20.362040
  H           63.595940       15.538020       20.238880
  H           45.188730       17.247640       24.626880
  H           37.195450       30.781460       24.563850
  H           29.592650       17.034380       24.482710
  H           44.934090       18.300580       21.224820
  H           36.338120       30.135570       21.188280
  H           30.498700       16.593180       21.186290
  H           48.059360       14.332300       23.646210
  H           56.814560        2.552990       23.628690
  H           62.596480       15.854520       23.627300
  H           44.001770       20.477680       21.921440
  H           34.930800       28.205390       21.812820
  H           32.832880       16.434370       21.949320
  H           49.001560       12.156050       22.975480
  H           58.180600        4.471640       22.889360
  H           60.226460       16.078410       22.982050
  H           41.168000       22.826190       28.992270
  H           34.549380       24.479770       29.613720
  H           36.272250       17.709730       20.160130
  H           51.903880        9.830200       24.751520
  H           58.559240        8.349940       25.191680
  H           56.784460       14.675000       25.097300
  H           44.991880       24.258720       19.964600
  H           31.148740       27.102240       29.415600
  H           35.770280       13.660350       29.070620
  H           48.001090        8.216950       25.544420
  H           61.875350        5.615750       25.159320
  H           57.358900       18.934510       25.052490
  H           44.044400       26.573730       20.155150
  H           29.620960       25.121530       29.595800
  H           38.232870       13.252430       29.308570
  H           48.933420        5.896480       25.398360
  H           63.463840        7.547340       24.965380
  H           54.891240       19.258680       24.740080
  H           40.241920       25.149530       29.091530
  H           33.017410       22.492060       29.681720
  H           38.749880       17.326390       20.283390
  H           52.860530        7.511190       24.710510
  H           60.154510       10.287260       25.110930
  H           54.305660       15.002670       24.904550
  H           42.872440       17.437730       25.481500
  H           38.225800       28.660430       25.314630
  H           30.931390       18.989060       25.184810
  H           50.321340       15.139100       29.514360
  H           54.993320        4.209930       29.659420
  H           62.378990       13.677570       29.378560
  H           51.609920       17.783340       27.389950
  H           52.043170        3.804270       27.617750
  H           64.217830       11.207210       27.493600
  H           41.668820       14.597100       27.476170
  H           41.238590       29.051920       27.193030
  H           29.207290       21.421670       27.147630
  H           49.367780       17.999870       28.328400
  H           53.084820        1.782570       28.496760
  H           65.509690       13.126710       28.274540
  H           43.931740       14.431700       26.604930
  H           40.230430       31.129840       26.413170
  H           27.859970       19.546490       26.346070
  H           47.900100       18.497420       29.500120
  H           34.792480       32.426470       29.515950
  H           29.364210       14.289650       29.524310
  H           45.367550       14.186970       25.314630
  H           58.350130        0.348950       25.273020
  H           63.755480       18.441310       25.267940
  H           46.814830       20.637070       25.173260
  H           33.399540       30.415420       25.170470
  H           31.583000       13.994140       25.269040
  H           46.261370       12.007140       29.699340
  H           59.695730        2.243670       29.500820
  H           61.456230       18.727720       29.680130
  H           47.769840       15.676880       25.079180
  H           55.687620        1.610550       25.072110
  H           63.765360       15.574970       25.199340
  H           45.343230       17.065250       29.699140
  H           37.403550       30.997690       29.652250
  H           29.136200       17.190170       29.718360
  H           44.990230       18.259710       26.335520
  H           36.477610       30.119810       26.294800
  H           30.464830       16.908200       26.292810
  H           48.215460       14.300080       28.543450
  H           56.623870        2.648690       28.475350
  H           62.560740       15.924390       28.551920
  H           44.080390       20.448470       26.998390
  H           35.078980       28.187830       26.936260
  H           32.854060       16.650400       26.888470
  H           49.101210       12.105200       27.840160
  H           57.969170        4.608790       27.800640
  H           60.202540       16.135670       27.860570
  C           41.750760       23.629180       24.748340
  C           33.410260       24.588870       24.487890
  C           36.721470       16.990580       24.489480
  C           51.287390        9.038220       20.208920
  C           59.653330        8.038180       20.089640
  C           56.322660       15.666610       20.232810
  C           43.991190       24.503860       24.376580
  C           31.495430       26.088500       24.548020
  C           36.292230       14.618350       24.818330
  C           49.043510        8.124440       20.444370
  C           61.544310        6.507640       20.075210
  C           56.699540       18.070460       20.197270
  C           43.583700       22.005460       24.401570
  C           33.840090       27.019970       24.348110
  C           34.380200       16.214420       24.346120
  C           49.417380       10.625020       20.492760
  C           59.183510        5.621300       20.316240
  C           58.636410       16.463940       20.528200
  C           43.120220       23.411110       24.524030
  C           32.883490       25.890600       24.472760
  C           35.819290       15.916970       24.569430
  C           49.905840        9.229980       20.366320
  C           60.158750        6.728670       20.141020
  C           57.198260       16.761720       20.305790
  C           43.491550       25.799820       24.448760
  C           30.644190       24.991140       24.643100
  C           37.657390       14.397400       24.970750
  C           49.565410        6.836880       20.375580
  C           62.413170        7.590470       19.978730
  C           55.332250       18.276810       20.032890
  C           41.242870       24.925390       24.769840
  C           32.556620       23.489780       24.524930
  C           38.089240       16.763530       24.602980
  C           51.814580        7.750420       20.191690
  C           60.524490        9.123330       20.042850
  C           54.951430       15.874030       20.123200
  C           41.648360       27.426120       24.588450
  C           30.200030       22.562310       24.616920
  C           40.012280       15.137890       24.880160
  C           51.448670        5.247360       20.322020
  C           62.904520       10.006980       20.036580
  C           52.995440       17.470790       19.988790
  C           42.114900       26.015530       24.616920
  C           31.168440       23.688690       24.606860
  C           38.563180       15.462220       24.838440
  C           50.952730        6.645610       20.281000
  C           61.911000        8.901820       19.998350
  C           54.451750       17.182900       20.031600
  C           43.108190       16.763350       24.662220
  C           38.658340       29.224360       24.492170
  C           30.168200       19.088520       24.417300
  C           49.959010       15.788510       20.320720
  C           54.443200        3.514660       20.471550
  C           62.982440       13.490550       20.250730
  C           46.904260       16.858330       22.365480
  C           55.137290        0.279790       22.390070
  C           65.334400       15.639670       22.366270
  C           46.093550       15.754470       22.494610
  C           37.946160       32.380290       22.455080
  C           27.710050       16.896460       22.459660
  C           50.597640       17.607920       21.786440
  C           52.629660        3.123780       22.030860
  C           64.078360       12.067870       21.876940
  C           42.389470       15.070740       23.084400
  C           40.408830       29.494570       22.838390
  C           28.924900       20.490660       22.885780
  C           49.280740       17.698760       22.232170
  C           53.219110        1.917980       22.399730
  C           64.801120       13.166660       22.339390
  C           43.693650       14.976090       22.605120
  C           39.819510       30.686160       22.423120
  C           28.181800       19.381090       22.488530
  C           44.728430       15.800720       23.094150
  C           38.616840       31.158340       22.986830
  C           28.437110       18.088660       22.994300
  C           48.277690       16.814150       21.782760
  C           54.457270        1.500860       21.869270
  C           64.611180       14.458890       21.807050
  C           46.939160       18.887210       23.902680
  C           34.841910       31.457470       23.933940
  C           30.010130       14.655340       23.935930
  C           46.045760       13.700980       20.984490
  C           58.215390        1.156150       20.865710
  C           62.986130       17.909330       20.952930
  C           46.429180       20.126980       24.295040
  C           34.030480       30.375660       24.286780
  C           31.335500       14.542280       24.364340
  C           46.559060       12.455870       20.610540
  C           59.006610        2.230380       20.450650
  C           61.645230       18.059340       20.591520
  C           46.574910       14.398500       22.084120
  C           57.413030        1.248920       22.016820
  C           63.354080       17.119330       22.056440
  C           46.414140       18.207970       22.789600
  C           35.679680       31.395830       22.806330
  C           29.680940       15.403440       22.791890
  C           47.622020       11.922090       21.329560
  C           58.976870        3.413460       21.180520
  C           60.669070       17.393810       21.324680
  C           45.373660       20.680140       23.579310
  C           34.074450       29.220960       23.515290
  C           32.334490       15.200260       23.654580
  C           48.646420       15.899060       20.772720
  C           55.018340        2.306400       20.855660
  C           63.715680       14.576520       20.723140
  C           44.406880       16.654090       24.169700
  C           38.082400       30.416780       24.060380
  C           29.414060       17.990800       24.008710
  C           50.930990       16.629290       20.854560
  C           53.263450        3.923710       21.084150
  C           63.158660       12.244920       20.845900
  C           42.102470       15.988060       24.093040
  C           39.810720       28.764560       23.862460
  C           29.932580       20.328110       23.831890
  C           45.357940       18.806990       22.085620
  C           35.692740       30.209700       22.056350
  C           30.723500       16.016570       22.078650
  C           47.634110       13.813700       22.794080
  C           57.427870        2.453540       22.738330
  C           62.335710       16.475290       22.776760
  C           44.827720       20.034150       22.472800
  C           34.903500       29.118170       22.402810
  C           32.045850       15.930570       22.503670
  C           48.170960       12.586340       22.421830
  C           58.195570        3.540370       22.327050
  C           60.997270       16.596630       22.417650
  C           41.808040       23.673660       29.226430
  C           33.468980       24.602190       29.601570
  C           36.698500       16.726580       19.974150
  C           51.271300        8.958310       24.900960
  C           59.635310        8.193290       25.154340
  C           56.353460       15.671340       25.030690
  C           44.025100       24.516320       29.753400
  C           31.552820       26.096980       29.496640
  C           36.441310       14.469140       29.346700
  C           49.057110        8.057730       25.342310
  C           61.506390        6.637190       25.128860
  C           56.689960       18.079740       24.998930
  C           43.654120       22.037080       29.297820
  C           33.909080       27.024820       29.369300
  C           34.480080       16.075640       29.428440
  C           49.443380       10.570250       25.309160
  C           59.141680        5.781330       25.391390
  C           58.655840       16.507500       25.343210
  C           43.178360       23.441870       29.435410
  C           32.943810       25.901620       29.497630
  C           35.924950       15.755340       29.573500
  C           49.907830        9.163190       25.170270
  C           60.125380        6.878320       25.208100
  C           57.212440       16.780710       25.112030
  C           43.410680       25.727080       19.901680
  C           30.701570       25.000270       29.591620
  C           37.808990       14.240550       29.470850
  C           49.573930        6.765920       25.264360
  C           62.390010        7.707070       25.024720
  C           55.319120       18.262510       24.829580
  C           41.294420       24.966010       29.289250
  C           32.616530       23.501870       29.646570
  C           38.072750       16.509220       20.048430
  C           51.797080        7.669440       24.870300
  C           60.521630        9.264850       25.101180
  C           54.979020       15.855820       24.914500
  C           41.667010       27.456200       29.619590
  C           30.247290       22.579230       29.613620
  C           40.135850       14.994300       29.757780
  C           51.453730        5.165340       25.116410
  C           62.905110       10.122960       25.086040
  C           52.989660       17.425790       24.817130
  C           42.141290       26.043320       29.602170
  C           31.225650       23.698770       29.636420
  C           38.680030       15.301310       29.769730
  C           50.950240        6.565420       25.061550
  C           61.905120        9.023950       25.050200
  C           54.453800       17.155680       24.825200
  C           43.242590       16.638480       29.710290
  C           38.794660       29.368770       29.548810
  C           29.961080       19.168380       29.589630
  C           49.895740       15.975290       25.063150
  C           54.333480        3.274390       25.147170
  C           63.092050       13.542860       25.278490
  C           47.014580       16.856240       27.405190
  C           55.181740        0.318140       27.405590
  C           65.372180       15.751570       27.387960
  C           46.204550       15.748960       27.466910
  C           56.549200        0.190850       27.413350
  C           27.705200       16.988220       27.420120
  C           50.769160       17.312270       26.886380
  C           52.847780        3.330200       27.060110
  C           64.108710       12.167960       26.996100
  C           42.469750       15.142230       27.968500
  C           40.395490       29.475240       27.733440
  C           29.199220       20.486830       27.702370
  C           49.484660       17.433710       27.411960
  C           53.440520        2.165940       27.547560
  C           64.840340       13.270110       27.435150
  C           43.768600       15.056500       27.474580
  C           39.810790       30.662130       27.295070
  C           28.427150       19.414970       27.260830
  C           44.829430       15.785060       28.046350
  C           38.682890       31.212270       27.934250
  C           28.430500       18.184520       27.943900
  C           48.382520       16.800020       26.808730
  C           54.502120        1.538110       26.868360
  C           64.683100       14.541620       26.850940
  C           47.100440       18.930280       28.904750
  C           34.828650       31.529310       28.903660
  C           30.115530       14.760290       28.893800
  C           46.139350       13.718400       25.920850
  C           58.304120        1.247070       25.883620
  C           62.989970       17.982840       25.888500
  C           46.593700       20.177080       29.287560
  C           34.023810       30.446630       29.268650
  C           31.462880       14.599120       29.229920
  C           46.621910       12.466380       25.528790
  C           59.081380        2.344460       25.504200
  C           61.653840       18.122650       25.501010
  C           46.696820       14.404580       27.014610
  C           57.414420        1.329650       26.968820
  C           63.349960       17.189940       26.993010
  C           46.531600       18.207900       27.840760
  C           35.729390       31.433590       27.828910
  C           29.730370       15.576280       27.815370
  C           47.694200       11.907820       26.212960
  C           58.945980        3.543980       26.192950
  C           60.665210       17.447890       26.207880
  C           45.499450       20.705060       28.610460
  C           34.132590       29.251840       28.566850
  C           32.432960       15.277910       28.501640
  C           48.615810       16.109740       25.602760
  C           54.905920        2.102450       25.642880
  C           63.838040       14.630570       25.726410
  C           44.535690       16.546150       29.195570
  C           38.225200       30.559100       29.096410
  C           29.176290       18.106750       29.137430
  C           50.965700       16.563370       25.729500
  C           53.311570        3.883200       25.868190
  C           63.212180       12.326780       25.943750
  C           42.214180       15.943000       29.079680
  C           39.865970       28.824570       28.844620
  C           29.977240       20.346140       28.847510
  C           45.446750       18.791660       27.163560
  C           35.792070       30.214650       27.130900
  C           30.741470       16.254630       27.113080
  C           47.763750       13.793450       27.696100
  C           57.315560        2.558730       27.644030
  C           62.316590       16.542540       27.694310
  C           44.925650       20.027080       27.535610
  C           35.008320       29.121610       27.490010
  C           32.086920       16.119240       27.446800
  C           48.270380       12.556260       27.303240
  C           58.064830        3.668060       27.264910
  C           60.982000       16.657230       27.310410
  O           44.893010       21.948510       23.959230
  O           33.220850       28.145370       23.838560
  O           33.665360       15.057950       24.093930
  O           48.121380       10.655160       20.969350
  O           59.809160        4.477780       20.776510
  O           59.319100       17.581570       20.967560
  O           42.908050       21.017830       24.634140
  O           35.024670       26.970250       24.629760
  O           33.888170       17.329740       24.363840
  O           50.068530       11.623760       20.237790
  O           57.984410        5.705140       20.111250
  O           59.156570       15.373630       20.367120
  O           40.314950       27.503290       24.230030
  O           30.786470       21.396840       24.160940
  O           40.775180       16.222630       24.489780
  O           52.755800        5.196670       20.767840
  O           62.319080       11.189470       20.442580
  O           52.274440       16.409580       20.503310
  O           42.352230       28.392550       24.820920
  O           29.032280       22.647800       24.956020
  O           40.479470       14.054740       25.185010
  O           50.790660        4.262480       20.037470
  O           64.181080        9.963720       29.733690
  O           52.587610       18.583820       29.541840
  O           45.005370       21.970610       29.001430
  O           33.289540       28.180110       28.929740
  O           33.793410       15.051370       28.805490
  O           48.160670       10.632910       25.821790
  O           59.768500        4.623350       25.816610
  O           59.317740       17.623470       25.819400
  O           42.938970       21.056550       29.408530
  O           35.102720       26.949280       29.605560
  O           33.958000       17.113740       29.797710
  O           50.106160       11.554600       25.027010
  O           57.940240        5.879580       25.215570
  O           59.195210       15.430200       25.156040
  O           40.351230       27.550340       29.204130
  O           30.842430       21.397440       29.214780
  O           40.894520       16.130310       29.535170
  O           52.801460        5.121950       25.423650
  O           62.342150       11.276590       25.594990
  O           52.282690       16.331310       25.281580
  O           42.252860       28.341690       19.979330
  O           28.970360       22.610880       19.916110
  O           40.514610       13.800710       19.920390
  O           50.766450        4.173660       24.952440
  O           64.072940       10.024630       24.753910
  O           52.471950       18.481090       24.497150
  H           41.193920       22.842220       34.828850
  H           34.581490       24.541150       34.399350
  H           36.419690       18.065030       34.262860
  H           52.019990        9.991320       30.090810
  H           58.667670        8.258010       30.079860
  H           56.832780       14.742160       30.253490
  H           45.141030       24.408360       34.155330
  H           31.187980       27.176190       34.491740
  H           35.680120       13.870560       34.836620
  H           48.067550        8.359790       30.522700
  H           62.020430        5.569410       30.065320
  H           57.474280       18.991960       30.203410
  H           44.235380       26.741080       34.300890
  H           29.658750       25.194860       34.675030
  H           38.143060       13.478420       35.114190
  H           49.012390        6.040360       30.387100
  H           63.582110        7.525910       29.881040
  H           55.011650       19.356480       29.897560
  H           40.269940       25.178220       34.856030
  H           33.045280       22.555880       34.449430
  H           38.888520       17.659330       34.454910
  H           52.978870        7.668920       30.070500
  H           60.234270       10.218270       30.006380
  H           54.354410       15.111180       30.070100
  H           43.031630       17.229570       30.597770
  H           38.420160       28.871140       30.439670
  H           30.536780       19.087190       30.508660
  H           50.155200       15.512220       34.090920
  H           54.752580        3.779690       34.159910
  H           62.518400       13.705810       34.379440
  H           51.449770       18.346180       32.150200
  H           51.793550        3.521080       32.454260
  H           64.310380       11.170360       32.292270
  H           41.697040       14.529340       32.611960
  H           41.400410       29.209960       32.303620
  H           28.827330       21.539500       32.393420
  H           49.145620       18.529580       32.933240
  H           52.805370        1.397660       33.104680
  H           65.591460       13.080470       33.108560
  H           43.978520       14.348310       31.761220
  H           40.390650       31.306650       31.573150
  H           27.509710       19.613200       31.692620
  H           47.800150       18.497040       34.469940
  H           34.952710       32.406850       34.540130
  H           29.316810       14.296780       34.505780
  H           45.369090       14.233940       30.320290
  H           58.265310        0.344980       30.195350
  H           63.841250       18.438020       30.278880
  H           47.016690       20.707890       30.136410
  H           33.353090       30.514830       30.121070
  H           31.753440       13.981850       30.075580
  H           46.294240       12.032520       34.623360
  H           59.842340        2.361700       34.606640
  H           61.479430       18.789370       34.583840
  H           47.984860       15.335340       30.289530
  H           56.018020        2.063030       30.318000
  H           63.687850       15.615410       30.194850
  H           45.280650       17.325030       34.582840
  H           37.287370       30.858850       34.519820
  H           29.684560       17.111770       34.438680
  H           45.026010       18.377970       31.180790
  H           36.430040       30.212960       31.144250
  H           30.590620       16.670570       31.142260
  H           48.151280       14.409690       33.602180
  H           56.906470        2.630380       33.584660
  H           62.688400       15.931910       33.583260
  H           44.093690       20.555070       31.877410
  H           35.022720       28.282780       31.768790
  H           32.924800       16.511760       31.905280
  H           49.093470       12.233440       32.931440
  H           58.272520        4.549030       32.845330
  H           60.318380       16.155800       32.938020
  H           41.259920       22.903580       38.948230
  H           34.641290       24.557160       39.569680
  H           36.364170       17.787120       30.116100
  H           51.995800        9.907590       34.707490
  H           58.651160        8.427330       35.147640
  H           56.876370       14.752390       35.053260
  H           45.083800       24.336110       29.920560
  H           31.240660       27.179630       39.371560
  H           35.862200       13.737740       39.026590
  H           48.093010        8.294350       35.500380
  H           61.967270        5.693140       35.115290
  H           57.450820       19.011900       35.008460
  H           44.136320       26.651130       30.111120
  H           29.712880       25.198920       39.551760
  H           38.324790       13.329820       39.264530
  H           49.025340        5.973870       35.354330
  H           63.555760        7.624740       34.921340
  H           54.983160       19.336070       34.696040
  H           40.333830       25.226920       39.047490
  H           33.109330       22.569450       39.637680
  H           38.841800       17.403780       30.239350
  H           52.952440        7.588580       34.666470
  H           60.246430       10.364650       35.066900
  H           54.397580       15.080060       34.860510
  H           42.964360       17.515120       35.437460
  H           38.317720       28.737820       35.270600
  H           31.023310       19.066450       35.140770
  H           50.413260       15.216490       39.470320
  H           55.085240        4.287320       39.615380
  H           62.470910       13.754960       39.334520
  H           51.701830       17.860730       37.345920
  H           52.135090        3.881670       37.573710
  H           64.309750       11.284600       37.449560
  H           41.760740       14.674490       37.432140
  H           41.330510       29.129310       37.148990
  H           29.299210       21.499060       37.103590
  H           49.459700       18.077260       38.284370
  H           53.176740        1.859960       38.452720
  H           65.601610       13.204110       38.230510
  H           44.023660       14.509100       36.560890
  H           40.322350       31.207230       36.369140
  H           27.951890       19.623880       36.302040
  H           47.992020       18.574810       39.456090
  H           34.884390       32.503860       39.471920
  H           29.456130       14.367040       39.480280
  H           45.459470       14.264360       35.270600
  H           58.442050        0.426340       35.228980
  H           63.847400       18.518700       35.223910
  H           46.906750       20.714470       35.129220
  H           33.491460       30.492810       35.126440
  H           31.674910       14.071530       35.225000
  H           46.353290       12.084530       39.655310
  H           59.787650        2.321060       39.456780
  H           61.548150       18.805110       39.636090
  H           47.861760       15.754270       35.035140
  H           55.779540        1.687940       35.028070
  H           63.857280       15.652360       35.155310
  H           45.435150       17.142650       39.655110
  H           37.495470       31.075080       39.608210
  H           29.228120       17.267560       39.674320
  H           45.082150       18.337100       36.291480
  H           36.569530       30.197200       36.250760
  H           30.556750       16.985600       36.248770
  H           48.307380       14.377470       38.499420
  H           56.715790        2.726080       38.431320
  H           62.652660       16.001780       38.507880
  H           44.172310       20.525860       36.954350
  H           35.170890       28.265220       36.892230
  H           32.945980       16.727790       36.844440
  H           49.193130       12.182590       37.796130
  H           58.061090        4.686180       37.756600
  H           60.294460       16.213060       37.816540
  C           41.842680       23.706570       34.704300
  C           33.502180       24.666270       34.443860
  C           36.813390       17.067980       34.445450
  C           51.379310        9.115610       30.164880
  C           59.745240        8.115570       30.045610
  C           56.414580       15.744000       30.188780
  C           44.083110       24.581250       34.332550
  C           31.587350       26.165890       34.503990
  C           36.384150       14.695740       34.774290
  C           49.135420        8.201830       30.400340
  C           61.636230        6.585030       30.031170
  C           56.791460       18.147850       30.153230
  C           43.675620       22.082850       34.357540
  C           33.932010       27.097360       34.304070
  C           34.472120       16.291810       34.302080
  C           49.509300       10.702410       30.448730
  C           59.275430        5.698690       30.272210
  C           58.728330       16.541330       30.484170
  C           43.212140       23.488500       34.480000
  C           32.975410       25.968000       34.428720
  C           35.911200       15.994360       34.525390
  C           49.997760        9.307370       30.322280
  C           60.250660        6.806060       30.096980
  C           57.290180       16.839110       30.261750
  C           43.583470       25.877210       34.404730
  C           30.736110       25.068540       34.599070
  C           37.749310       14.474790       34.926720
  C           49.657330        6.914280       30.331540
  C           62.505080        7.667860       29.934700
  C           55.424170       18.354200       29.988860
  C           41.334790       25.002780       34.725810
  C           32.648540       23.567170       34.480890
  C           38.181160       16.840920       34.558950
  C           51.906500        7.827820       30.147660
  C           60.616410        9.200720       29.998820
  C           55.043340       15.951420       30.079160
  C           41.740270       27.503510       34.544410
  C           30.291950       22.639700       34.572880
  C           40.104200       15.215280       34.836120
  C           51.540580        5.324750       30.277980
  C           62.996430       10.084370       29.992540
  C           53.087360       17.548180       29.944750
  C           42.206820       26.092920       34.572880
  C           31.260360       23.766080       34.562830
  C           38.655100       15.539610       34.794400
  C           51.044640        6.723000       30.236960
  C           62.002910        8.979210       29.954310
  C           54.543670       17.260290       29.987570
  C           43.200110       16.840740       34.618180
  C           38.750260       29.301750       34.448140
  C           30.260120       19.165910       34.373270
  C           50.050930       15.865910       30.276690
  C           54.535120        3.592050       30.427520
  C           63.074360       13.567950       30.206700
  C           46.996180       16.935720       32.321440
  C           55.229210        0.357180       32.346030
  C           65.426320       15.717060       32.322240
  C           46.185470       15.831870       32.450570
  C           38.038080       32.457680       32.411050
  C           27.801960       16.973850       32.415630
  C           50.689560       17.685310       31.742400
  C           52.721580        3.201180       31.986820
  C           64.170280       12.145270       31.832900
  C           42.481390       15.148130       33.040360
  C           40.500740       29.571960       32.794350
  C           29.016810       20.568050       32.841740
  C           49.372650       17.776150       32.188130
  C           53.311030        1.995370       32.355690
  C           64.893040       13.244050       32.295360
  C           43.785570       15.053490       32.561080
  C           39.911430       30.763550       32.379090
  C           28.273720       19.458490       32.444500
  C           44.820350       15.878120       33.050120
  C           38.708750       31.235730       32.942790
  C           28.529030       18.166050       32.950260
  C           48.369610       16.891540       31.738720
  C           54.549180        1.578250       31.825240
  C           64.703090       14.536280       31.763010
  C           47.031080       18.964600       33.858640
  C           34.933830       31.534860       33.889910
  C           30.102050       14.732730       33.891900
  C           46.137680       13.778370       30.940450
  C           58.307310        1.233540       30.821680
  C           63.078050       17.986730       30.908890
  C           46.521100       20.204370       34.251010
  C           34.122400       30.453060       34.242740
  C           31.427420       14.619670       34.320300
  C           46.650980       12.533260       30.566500
  C           59.098530        2.307780       30.406610
  C           61.737150       18.136730       30.547490
  C           46.666830       14.475890       32.040090
  C           57.504950        1.326320       31.972780
  C           63.446000       17.196720       32.012410
  C           46.506060       18.285360       32.745570
  C           35.771600       31.473220       32.762290
  C           29.772860       15.480830       32.747860
  C           47.713940       11.999480       31.285520
  C           59.068790        3.490850       31.136480
  C           60.760990       17.471200       31.280650
  C           45.465580       20.757530       33.535270
  C           34.166370       29.298350       33.471260
  C           32.426410       15.277650       33.610540
  C           48.738330       15.976460       30.728690
  C           55.110260        2.383790       30.811620
  C           63.807600       14.653910       30.679110
  C           44.498800       16.731480       34.125660
  C           38.174320       30.494170       34.016350
  C           29.505980       18.068190       33.964670
  C           51.022910       16.706680       30.810530
  C           53.355370        4.001100       31.040110
  C           63.250580       12.322310       30.801860
  C           42.194390       16.065460       34.049000
  C           39.902640       28.841950       33.818420
  C           30.024500       20.405500       33.787860
  C           45.449860       18.884380       32.041580
  C           35.784660       30.287090       32.012310
  C           30.815410       16.093970       32.034610
  C           47.726030       13.891090       32.750050
  C           57.519780        2.530930       32.694290
  C           62.427630       16.552690       32.732720
  C           44.919640       20.111540       32.428770
  C           34.995410       29.195560       32.358780
  C           32.137760       16.007970       32.459630
  C           48.262880       12.663730       32.377790
  C           58.287490        3.617760       32.283010
  C           61.089180       16.674020       32.373610
  C           41.899950       23.751060       39.182400
  C           33.560900       24.679580       39.557540
  C           36.790410       16.803970       29.930120
  C           51.363220        9.035700       34.856930
  C           59.727230        8.270680       35.110310
  C           56.445370       15.748730       34.986650
  C           44.117010       24.593710       39.709370
  C           31.644740       26.174370       39.452600
  C           36.533230       14.546530       39.302660
  C           49.149030        8.135120       35.298280
  C           61.598300        6.714580       35.084820
  C           56.781880       18.157130       34.954900
  C           43.746040       22.114470       39.253780
  C           34.001000       27.102210       39.325260
  C           34.572000       16.153030       39.384400
  C           49.535300       10.647640       35.265120
  C           59.233600        5.858720       35.347360
  C           58.747760       16.584890       35.299170
  C           43.270280       23.519260       39.391370
  C           33.035720       25.979010       39.453600
  C           36.016870       15.832730       39.529460
  C           49.999740        9.240580       35.126240
  C           60.217290        6.955710       35.164070
  C           57.304360       16.858100       35.067990
  C           43.502600       25.804470       29.857640
  C           30.793490       25.077660       39.547580
  C           37.900910       14.317940       39.426820
  C           49.665850        6.843310       35.220320
  C           62.481920        7.784460       34.980680
  C           55.411030       18.339900       34.785540
  C           41.386330       25.043400       39.245220
  C           32.708450       23.579260       39.602540
  C           38.164670       16.586610       30.004390
  C           51.888990        7.746830       34.826260
  C           60.613540        9.342240       35.057140
  C           55.070940       15.933210       34.870470
  C           41.758930       27.533600       39.575560
  C           30.339210       22.656620       39.569580
  C           40.227770       15.071690       39.713750
  C           51.545640        5.242740       35.072380
  C           62.997030       10.200350       35.042010
  C           53.081580       17.503180       34.773100
  C           42.233210       26.120710       39.558130
  C           31.317570       23.776170       39.592380
  C           38.771950       15.378700       39.725690
  C           51.042160        6.642810       35.017520
  C           61.997040        9.101340       35.006170
  C           54.545720       17.233070       34.781160
  C           43.334500       16.715880       39.666260
  C           38.886570       29.446160       39.504770
  C           30.053000       19.245770       39.545590
  C           49.987660       16.052690       35.019110
  C           54.425400        3.351780       35.103140
  C           63.183970       13.620250       35.234460
  C           47.106500       16.933630       37.361150
  C           55.273660        0.395530       37.361550
  C           65.464100       15.828960       37.343930
  C           46.296470       15.826350       37.422880
  C           56.641120        0.268240       37.369320
  C           27.797120       17.065610       37.376090
  C           50.861080       17.389660       36.842350
  C           52.939700        3.407600       37.016080
  C           64.200630       12.245350       36.952060
  C           42.561670       15.219620       37.924460
  C           40.487410       29.552630       37.689400
  C           29.291140       20.564220       37.658340
  C           49.576580       17.511100       37.367920
  C           53.532440        2.243330       37.503520
  C           64.932250       13.347500       37.391120
  C           43.860520       15.133890       37.430550
  C           39.902700       30.739520       37.251040
  C           28.519070       19.492360       37.216790
  C           44.921340       15.862450       38.002320
  C           38.774810       31.289660       37.890210
  C           28.522420       18.261910       37.899870
  C           48.474430       16.877410       36.764690
  C           54.594040        1.615500       36.824330
  C           64.775020       14.619010       36.806900
  C           47.192360       19.007680       38.860720
  C           34.920570       31.606700       38.859620
  C           30.207450       14.837680       38.849770
  C           46.231270       13.795790       35.876820
  C           58.396040        1.324460       35.839580
  C           63.081890       18.060230       35.844460
  C           46.685620       20.254470       39.243530
  C           34.115730       30.524020       39.224610
  C           31.554800       14.676510       39.185880
  C           46.713830       12.543770       35.484750
  C           59.173300        2.421860       35.460160
  C           61.745760       18.200040       35.456970
  C           46.788730       14.481970       36.970580
  C           57.506340        1.407040       36.924780
  C           63.441880       17.267330       36.948980
  C           46.623520       18.285290       37.796730
  C           35.821310       31.510980       37.784880
  C           29.822290       15.653670       37.771340
  C           47.786120       11.985210       36.168930
  C           59.037890        3.621380       36.148910
  C           60.757130       17.525280       36.163850
  C           45.591360       20.782450       38.566420
  C           34.224510       29.329240       38.522810
  C           32.524880       15.355310       38.457600
  C           48.707730       16.187130       35.558720
  C           54.997840        2.179840       35.598850
  C           63.929960       14.707960       35.682380
  C           44.627600       16.623540       39.151530
  C           38.317120       30.636490       39.052370
  C           29.268210       18.184140       39.093390
  C           51.057620       16.640760       35.685460
  C           53.403490        3.960590       35.824150
  C           63.304100       12.404170       35.899720
  C           42.306100       16.020400       39.035650
  C           39.957890       28.901960       38.800590
  C           30.069160       20.423530       38.803470
  C           45.538670       18.869050       37.119520
  C           35.883990       30.292040       37.086870
  C           30.833390       16.332020       37.069040
  C           47.855670       13.870840       37.652070
  C           57.407480        2.636120       37.600000
  C           62.408510       16.619930       37.650270
  C           45.017570       20.104470       37.491580
  C           35.100240       29.199000       37.445980
  C           32.178840       16.196630       37.402770
  C           48.362300       12.633650       37.259200
  C           58.156750        3.745450       37.220870
  C           61.073920       16.734620       37.266370
  O           44.984930       22.025900       33.915190
  O           33.312770       28.222760       33.794530
  O           33.757280       15.135340       34.049900
  O           48.213300       10.732550       30.925320
  O           59.901080        4.555170       30.732470
  O           59.411010       17.658960       30.923530
  O           42.999970       21.095220       34.590110
  O           35.116590       27.047640       34.585730
  O           33.980090       17.407130       34.319800
  O           50.160450       11.701150       30.193750
  O           58.076330        5.782530       30.067210
  O           59.248490       15.451020       30.323080
  O           40.406870       27.580680       34.186000
  O           30.878390       21.474230       34.116900
  O           40.867100       16.300020       34.445750
  O           52.847720        5.274060       30.723810
  O           62.411000       11.266860       30.398550
  O           52.366360       16.486980       30.459280
  O           42.444140       28.469940       34.776880
  O           29.124200       22.725190       34.911980
  O           40.571390       14.132130       35.140970
  O           50.882580        4.339870       29.993440
  O           64.273000       10.041110       39.689650
  O           52.679530       18.661210       39.497800
  O           45.097290       22.048010       38.957390
  O           33.381460       28.257500       38.885710
  O           33.885330       15.128760       38.761460
  O           48.252580       10.710300       35.777760
  O           59.860420        4.700740       35.772580
  O           59.409650       17.700870       35.775370
  O           43.030890       21.133940       39.364490
  O           35.194640       27.026680       39.561520
  O           34.049920       17.191130       39.753670
  O           50.198080       11.631990       34.982970
  O           58.032160        5.956980       35.171540
  O           59.287120       15.507590       35.112000
  O           40.443150       27.627730       39.160100
  O           30.934350       21.474830       39.170750
  O           40.986440       16.207700       39.491130
  O           52.893380        5.199340       35.379620
  O           62.434070       11.353980       35.550960
  O           52.374610       16.408700       35.237540
  O           42.344780       28.419090       29.935300
  O           29.062280       22.688270       29.872080
  O           40.606530       13.878100       29.876360
  O           50.858360        4.251050       34.908400
  O           64.164860       10.102020       34.709880
  O           52.563870       18.558490       34.453110
  H           41.285840       22.919610       44.784820
  H           34.673410       24.618540       44.355320
  H           36.511600       18.142420       44.218820
  H           52.111910       10.068710       40.046770
  H           58.759590        8.335400       40.035820
  H           56.924700       14.819560       40.209450
  H           45.232950       24.485750       44.111300
  H           31.279900       27.253580       44.447710
  H           35.772030       13.947950       44.792580
  H           48.159470        8.437180       40.478660
  H           62.112340        5.646810       40.021290
  H           57.566200       19.069350       40.159380
  H           44.327300       26.818470       44.256850
  H           29.750660       25.272250       44.631000
  H           38.234980       13.555810       45.070160
  H           49.104310        6.117750       40.343060
  H           63.674020        7.603300       39.837000
  H           55.103570       19.433870       39.853530
  H           40.361860       25.255610       44.812000
  H           33.137200       22.633280       44.405400
  H           38.980440       17.736720       44.410870
  H           53.070790        7.746310       40.026460
  H           60.326180       10.295660       39.962350
  H           54.446330       15.188570       40.026070
  H           43.123550       17.306960       40.553730
  H           38.512070       28.948530       40.395630
  H           30.628700       19.164580       40.464630
  H           50.247120       15.589610       44.046880
  H           54.844490        3.857080       44.115880
  H           62.610320       13.783200       44.335410
  H           51.541690       18.423570       42.106170
  H           51.885470        3.598470       42.410220
  H           64.402300       11.247750       42.248240
  H           41.788960       14.606730       42.567920
  H           41.492330       29.287360       42.259590
  H           28.919250       21.616890       42.349390
  H           49.237540       18.606980       42.889200
  H           52.897290        1.475050       43.060640
  H           65.683380       13.157860       43.064530
  H           44.070430       14.425700       41.717190
  H           40.482570       31.384040       41.529120
  H           27.601620       19.690590       41.648590
  H           47.892070       18.574430       44.425900
  H           35.044630       32.484240       44.496090
  H           29.408730       14.374170       44.461750
  H           45.461010       14.311330       40.276260
  H           58.357230        0.422370       40.151310
  H           63.933170       18.515410       40.234840
  H           47.108610       20.785290       40.092370
  H           33.445000       30.592230       40.077040
  H           31.845360       14.059250       40.031540
  H           46.386160       12.109910       44.579330
  H           59.934260        2.439090       44.562600
  H           61.571350       18.866760       44.539800
  H           48.076780       15.412730       40.245490
  H           56.109940        2.140420       40.273970
  H           63.779770       15.692800       40.150810
  H           45.372570       17.402420       44.538810
  H           37.379290       30.936240       44.475780
  H           29.776480       17.189160       44.394640
  H           45.117930       18.455370       41.136750
  H           36.521960       30.290350       41.100210
  H           30.682540       16.747960       41.098220
  H           48.243200       14.487080       43.558140
  H           56.998390        2.707770       43.540620
  H           62.780320       16.009300       43.539230
  H           44.185610       20.632460       41.833370
  H           35.114640       28.360170       41.724750
  H           33.016710       16.589150       41.861250
  H           49.185390       12.310830       42.887410
  H           58.364440        4.626420       42.801290
  H           60.410300       16.233190       42.893980
  H           41.351840       22.980970       48.904200
  H           34.733210       24.634550       49.525650
  H           36.456080       17.864510       40.072060
  H           52.087710        9.984980       44.663450
  H           58.743080        8.504730       45.103610
  H           56.968290       14.829780       45.009220
  H           45.175720       24.413500       39.876530
  H           31.332580       27.257020       49.327530
  H           35.954120       13.815130       48.982550
  H           48.184930        8.371740       45.456350
  H           62.059190        5.770530       45.071250
  H           57.542740       19.089300       44.964420
  H           44.228240       26.728520       40.067080
  H           29.804800       25.276310       49.507730
  H           38.416700       13.407210       49.220500
  H           49.117260        6.051260       45.310290
  H           63.647670        7.702130       44.877310
  H           55.075080       19.413460       44.652000
  H           40.425750       25.304310       49.003460
  H           33.201250       22.646850       49.593650
  H           38.933720       17.481170       40.195320
  H           53.044360        7.665970       44.622440
  H           60.338350       10.442040       45.022860
  H           54.489500       15.157460       44.816480
  H           43.056280       17.592510       45.393430
  H           38.409640       28.815210       45.226560
  H           31.115230       19.143840       45.096740
  H           50.505180       15.293880       49.426290
  H           55.177160        4.364710       49.571350
  H           62.562830       13.832350       49.290490
  H           51.793750       17.938120       47.301880
  H           52.227010        3.959060       47.529680
  H           64.401660       11.361990       47.405530
  H           41.852660       14.751880       47.388100
  H           41.422430       29.206700       47.104960
  H           29.391130       21.576450       47.059560
  H           49.551620       18.154660       48.240330
  H           53.268660        1.937350       48.408690
  H           65.693530       13.281500       48.186470
  H           44.115580       14.586490       46.516860
  H           40.414270       31.284630       46.325100
  H           28.043800       19.701270       46.258000
  H           48.083940       18.652200       49.412050
  H           34.976310       32.581250       49.427880
  H           29.548050       14.444430       49.436240
  H           45.551390       14.341750       45.226560
  H           58.533970        0.503730       45.184950
  H           63.939310       18.596090       45.179870
  H           46.998670       20.791860       45.085190
  H           33.583380       30.570200       45.082400
  H           31.766830       14.148920       45.180970
  H           46.445210       12.161920       49.611270
  H           59.879570        2.398450       49.412750
  H           61.640070       18.882500       49.592060
  H           47.953670       15.831660       44.991110
  H           55.871460        1.765330       44.984040
  H           63.949200       15.729750       45.111270
  H           45.527060       17.220040       49.611070
  H           37.587380       31.152470       49.564180
  H           29.320040       17.344960       49.630290
  H           45.174070       18.414490       46.247450
  H           36.661450       30.274600       46.206730
  H           30.648670       17.062990       46.204740
  H           48.399300       14.454860       48.455380
  H           56.807710        2.803470       48.387280
  H           62.744580       16.079180       48.463850
  H           44.264230       20.603260       46.910320
  H           35.262810       28.342610       46.848190
  H           33.037900       16.805180       46.800400
  H           49.285050       12.259980       47.752090
  H           58.153000        4.763580       47.712570
  H           60.386380       16.290450       47.772500
  C           41.934600       23.783960       44.660270
  C           33.594090       24.743660       44.399820
  C           36.905310       17.145370       44.401410
  C           51.471220        9.193000       40.120850
  C           59.837160        8.192960       40.001570
  C           56.506500       15.821390       40.144740
  C           44.175020       24.658650       44.288510
  C           31.679270       26.243280       44.459950
  C           36.476070       14.773130       44.730260
  C           49.227340        8.279220       40.356300
  C           61.728150        6.662420       39.987140
  C           56.883380       18.225250       40.109200
  C           43.767540       22.160250       44.313500
  C           34.023920       27.174750       44.260040
  C           34.564040       16.369200       44.258050
  C           49.601220       10.779800       40.404690
  C           59.367350        5.776080       40.228170
  C           58.820250       16.618720       40.440130
  C           43.304050       23.565890       44.435960
  C           33.067330       26.045390       44.384690
  C           36.003120       16.071750       44.481360
  C           50.089680        9.384760       40.278250
  C           60.342580        6.883450       40.052950
  C           57.382100       16.916500       40.217720
  C           43.675390       25.954610       44.360690
  C           30.828020       25.145930       44.555030
  C           37.841230       14.552180       44.882680
  C           49.749240        6.991670       40.287510
  C           62.597000        7.745250       39.890660
  C           55.516080       18.431590       39.944820
  C           41.426710       25.080180       44.681770
  C           32.740460       23.644560       44.436860
  C           38.273080       16.918310       44.514910
  C           51.998420        7.905210       40.103620
  C           60.708320        9.278110       39.954780
  C           55.135260       16.028810       40.035130
  C           41.832190       27.580910       44.500380
  C           30.383870       22.717090       44.528850
  C           40.196120       15.292670       44.792090
  C           51.632500        5.402150       40.233950
  C           63.088350       10.161760       39.948510
  C           53.179270       17.625570       39.900720
  C           42.298740       26.170310       44.528850
  C           31.352280       23.843480       44.518790
  C           38.747020       15.617010       44.750370
  C           51.136560        6.800390       40.192930
  C           62.094830        9.056600       39.910280
  C           54.635590       17.337680       39.943530
  C           43.292020       16.918130       44.574150
  C           38.842180       29.379140       44.404100
  C           30.352040       19.243300       44.329230
  C           50.142850       15.943300       40.232650
  C           54.627030        3.669450       40.383480
  C           63.166270       13.645340       40.162660
  C           47.088100       17.013110       42.277410
  C           55.321120        0.434580       42.302000
  C           65.518240       15.794450       42.278200
  C           46.277390       15.909260       42.406540
  C           38.130000       32.535070       42.367010
  C           27.893880       17.051240       42.371590
  C           50.781480       17.762700       41.698370
  C           52.813490        3.278570       41.942790
  C           64.262200       12.222660       41.788870
  C           42.573310       15.225520       42.996330
  C           40.592660       29.649360       42.750320
  C           29.108730       20.645440       42.797710
  C           49.464570       17.853540       42.144100
  C           53.402950        2.072760       42.311660
  C           64.984960       13.321440       42.251320
  C           43.877490       15.130880       42.517050
  C           40.003340       30.840940       42.335050
  C           28.365640       19.535880       42.400460
  C           44.912270       15.955510       43.006080
  C           38.800670       31.313120       42.898760
  C           28.620950       18.243440       42.906230
  C           48.461530       16.968930       41.694690
  C           54.641100        1.655640       41.781200
  C           64.795010       14.613670       41.718980
  C           47.123000       19.041990       43.814610
  C           35.025750       31.612250       43.845870
  C           30.193970       14.810120       43.847860
  C           46.229590       13.855760       40.896420
  C           58.399230        1.310940       40.777640
  C           63.169970       18.064120       40.864860
  C           46.613020       20.281770       44.206970
  C           34.214310       30.530450       44.198710
  C           31.519330       14.697060       44.276270
  C           46.742900       12.610650       40.522470
  C           59.190450        2.385170       40.362580
  C           61.829070       18.214120       40.503450
  C           46.758750       14.553280       41.996050
  C           57.596870        1.403710       41.928750
  C           63.537920       17.274110       41.968370
  C           46.597970       18.362750       42.701530
  C           35.863520       31.550620       42.718260
  C           29.864780       15.558220       42.703820
  C           47.805860       12.076870       41.241490
  C           59.160710        3.568240       41.092450
  C           60.852900       17.548590       41.236610
  C           45.557490       20.834920       43.491240
  C           34.258290       29.375740       43.427220
  C           32.518330       15.355040       43.566510
  C           48.830250       16.053850       40.684650
  C           55.202180        2.461180       40.767590
  C           63.899520       14.731300       40.635070
  C           44.590720       16.808880       44.081630
  C           38.266240       30.571570       43.972310
  C           29.597890       18.145580       43.920640
  C           51.114830       16.784070       40.766490
  C           53.447290        4.078500       40.996070
  C           63.342490       12.399700       40.757830
  C           42.286310       16.142850       44.004970
  C           39.994560       28.919340       43.774390
  C           30.116420       20.482890       43.743820
  C           45.541780       18.961780       41.997550
  C           35.876580       30.364480       41.968270
  C           30.907330       16.171360       41.990580
  C           47.817950       13.968480       42.706010
  C           57.611700        2.608320       42.650260
  C           62.519550       16.630080       42.688690
  C           45.011560       20.188940       42.384730
  C           35.087330       29.272950       42.314740
  C           32.229680       16.085360       42.415600
  C           48.354800       12.741120       42.333760
  C           58.379410        3.695150       42.238980
  C           61.181100       16.751410       42.329580
  C           41.991870       23.828450       49.138360
  C           33.652820       24.756970       49.513500
  C           36.882330       16.881360       39.886080
  C           51.455140        9.113090       44.812890
  C           59.819150        8.348070       45.066270
  C           56.537290       15.826130       44.942620
  C           44.208930       24.671100       49.665330
  C           31.736660       26.251760       49.408570
  C           36.625150       14.623920       49.258630
  C           49.240950        8.212510       45.254240
  C           61.690220        6.791980       45.040790
  C           56.873800       18.234520       44.910860
  C           43.837950       22.191860       49.209750
  C           34.092920       27.179610       49.281230
  C           34.663920       16.230420       49.340370
  C           49.627220       10.725030       45.221090
  C           59.325520        5.936110       45.303320
  C           58.839670       16.662280       45.255140
  C           43.362190       23.596650       49.347340
  C           33.127640       26.056400       49.409560
  C           36.108780       15.910120       49.485430
  C           50.091660        9.317970       45.082200
  C           60.309210        7.033100       45.120030
  C           57.396280       16.935490       45.023960
  C           43.594510       25.881860       39.813610
  C           30.885410       25.155060       49.503550
  C           37.992830       14.395340       49.382780
  C           49.757760        6.920700       45.176290
  C           62.573840        7.861850       44.936650
  C           55.502950       18.417300       44.741510
  C           41.478250       25.120790       49.201180
  C           32.800370       23.656650       49.558500
  C           38.256590       16.664000       39.960360
  C           51.980910        7.824220       44.782230
  C           60.705460        9.419640       45.013110
  C           55.162860       16.010600       44.826430
  C           41.850850       27.610990       49.531520
  C           30.431130       22.734010       49.525550
  C           40.319690       15.149080       49.669710
  C           51.637560        5.320130       45.028340
  C           63.088950       10.277740       44.997970
  C           53.173500       17.580570       44.729060
  C           42.325130       26.198100       49.514100
  C           31.409480       23.853560       49.548350
  C           38.863870       15.456100       49.681660
  C           51.134080        6.720200       44.973480
  C           62.088960        9.178730       44.962130
  C           54.637630       17.310470       44.737130
  C           43.426420       16.793270       49.622220
  C           38.978490       29.523550       49.460740
  C           30.144910       19.323160       49.501560
  C           50.079580       16.130080       44.975080
  C           54.517320        3.429170       45.059100
  C           63.275890       13.697640       45.190420
  C           47.198410       17.011020       47.317120
  C           55.365580        0.472920       47.317520
  C           65.556020       15.906350       47.299890
  C           46.388380       15.903740       47.378840
  C           56.733030        0.345630       47.325280
  C           27.889040       17.143000       47.332050
  C           50.953000       17.467050       46.798310
  C           53.031610        3.484990       46.972040
  C           64.292550       12.322740       46.908030
  C           42.653590       15.297010       47.880430
  C           40.579330       29.630020       47.645370
  C           29.383060       20.641610       47.614300
  C           49.668500       17.588490       47.323890
  C           53.624360        2.320720       47.459490
  C           65.024170       13.424890       47.347080
  C           43.952440       15.211290       47.386510
  C           39.994620       30.816910       47.207000
  C           28.610980       19.569750       47.172760
  C           45.013260       15.939840       47.958280
  C           38.866730       31.367050       47.846180
  C           28.614330       18.339300       47.855830
  C           48.566350       16.954800       46.720660
  C           54.685960        1.692890       46.780290
  C           64.866940       14.696400       46.762870
  C           47.284280       19.085070       48.816680
  C           35.012480       31.684090       48.815590
  C           30.299370       14.915070       48.805730
  C           46.323190       13.873180       45.832780
  C           58.487960        1.401850       45.795550
  C           63.173800       18.137620       45.800430
  C           46.777540       20.331860       49.199490
  C           34.207650       30.601410       49.180580
  C           31.646720       14.753910       49.141850
  C           46.805750       12.621160       45.440720
  C           59.265220        2.499250       45.416130
  C           61.837680       18.277440       45.412940
  C           46.880650       14.559370       46.926540
  C           57.598260        1.484440       46.880750
  C           63.533800       17.344730       46.904940
  C           46.715440       18.362680       47.752690
  C           35.913230       31.588370       47.740840
  C           29.914210       15.731060       47.727300
  C           47.878040       12.062600       46.124890
  C           59.129810        3.698770       46.104880
  C           60.849040       17.602670       46.119810
  C           45.683280       20.859840       48.522390
  C           34.316430       29.406630       48.478780
  C           32.616800       15.432700       48.413570
  C           48.799650       16.264520       45.514690
  C           55.089750        2.257240       45.554810
  C           64.021880       14.785350       45.638340
  C           44.719520       16.700930       49.107500
  C           38.409030       30.713880       49.008340
  C           29.360130       18.261530       49.049360
  C           51.149540       16.718150       45.641430
  C           53.495410        4.037990       45.780120
  C           63.396010       12.481560       45.855680
  C           42.398020       16.097790       48.991610
  C           40.049810       28.979350       48.756550
  C           30.161070       20.500920       48.759440
  C           45.630590       18.946440       47.075490
  C           35.975910       30.369430       47.042830
  C           30.925300       16.409410       47.025010
  C           47.947580       13.948240       47.608030
  C           57.499400        2.713510       47.555960
  C           62.500430       16.697320       47.606240
  C           45.109490       20.181860       47.447540
  C           35.192150       29.276390       47.401940
  C           32.270760       16.274020       47.358730
  C           48.454220       12.711040       47.215170
  C           58.248670        3.822840       47.176840
  C           61.165830       16.812010       47.222340
  O           45.076850       22.103290       43.871160
  O           33.404690       28.300150       43.750490
  O           33.849190       15.212730       44.005860
  O           48.305220       10.809940       40.881280
  O           59.993000        4.632570       40.688440
  O           59.502930       17.736350       40.879490
  O           43.091890       21.172610       44.546070
  O           35.208510       27.125030       44.541690
  O           34.072010       17.484520       44.275770
  O           50.252370       11.778550       40.149720
  O           58.168250        5.859930       40.023180
  O           59.340400       15.528410       40.279050
  O           40.498790       27.658070       44.141960
  O           30.970310       21.551620       44.072870
  O           40.959020       16.377410       44.401710
  O           52.939630        5.351450       40.679770
  O           62.502920       11.344250       40.354510
  O           52.458280       16.564370       40.415240
  O           42.536060       28.547330       44.732850
  O           29.216110       22.802580       44.867950
  O           40.663300       14.209530       45.096940
  O           50.974500        4.417260       39.949400
  O           64.364920       10.118500       49.645620
  O           52.771440       18.738600       49.453770
  O           45.189210       22.125400       48.913360
  O           33.473380       28.334890       48.841670
  O           33.977240       15.206160       48.717420
  O           48.344500       10.787700       45.733720
  O           59.952340        4.778140       45.728540
  O           59.501570       17.778260       45.731330
  O           43.122810       21.211340       49.320460
  O           35.286560       27.104070       49.517480
  O           34.141830       17.268520       49.709640
  O           50.290000       11.709380       44.938940
  O           58.124080        6.034370       45.127500
  O           59.379040       15.584980       45.067970
  O           40.535070       27.705120       49.116060
  O           31.026260       21.552220       49.126710
  O           41.078350       16.285090       49.447100
  O           52.985300        5.276730       45.335580
  O           62.525990       11.431380       45.506920
  O           52.466530       16.486090       45.193510
  O           42.436700       28.496480       39.891260
  O           29.154200       22.765660       39.828040
  O           40.698450       13.955500       39.832320
  O           50.950280        4.328440       44.864370
  O           64.256780       10.179410       44.665840
  O           52.655780       18.635880       44.409080
  H           41.377760       22.997000       54.740780
  H           34.765330       24.695930       54.311280
  H           36.603520       18.219810       54.174790
  H           52.203830       10.146100       50.002740
  H           58.851510        8.412800       49.991790
  H           57.016620       14.896950       50.165420
  H           45.324870       24.563140       54.067260
  H           31.371820       27.330970       54.403670
  H           35.863950       14.025340       54.748550
  H           48.251390        8.514570       50.434630
  H           62.204260        5.724200       49.977250
  H           57.658120       19.146750       50.115340
  H           44.419220       26.895860       54.212820
  H           29.842580       25.349650       54.586960
  H           38.326900       13.633210       55.026120
  H           49.196230        6.195140       50.299030
  H           63.765940        7.680690       49.792970
  H           55.195490       19.511260       49.809490
  H           40.453780       25.333000       54.767960
  H           33.229120       22.710670       54.361360
  H           39.072360       17.814110       54.366840
  H           53.162710        7.823700       49.982430
  H           60.418100       10.373060       49.918310
  H           54.538250       15.265960       49.982030
  H           43.215470       17.384350       50.509700
  H           38.603990       29.025920       50.351600
  H           30.720620       19.241970       50.420590
  H           50.339040       15.667010       54.002850
  H           54.936410        3.934470       54.071840
  H           62.702240       13.860590       54.291370
  H           51.633610       18.500960       52.062130
  H           51.977390        3.675870       52.366190
  H           64.494210       11.325140       52.204200
  H           41.880880       14.684120       52.523890
  H           41.584250       29.364750       52.215550
  H           29.011170       21.694280       52.305350
  H           49.329450       18.684370       52.845170
  H           52.989210        1.552440       53.016610
  H           65.775290       13.235250       53.020490
  H           44.162350       14.503090       51.673150
  H           40.574490       31.461430       51.485080
  H           27.693540       19.767980       51.604550
  H           47.983980       18.651820       54.381870
  H           35.136540       32.561630       54.452060
  H           29.500650       14.451560       54.417710
  H           45.552930       14.388720       50.232220
  H           58.449150        0.499760       50.107280
  H           64.025090       18.592810       50.190810
  H           47.200520       20.862680       50.048340
  H           33.536920       30.669620       50.033000
  H           31.937280       14.136640       49.987510
  H           46.478080       12.187300       54.535290
  H           60.026180        2.516490       54.518570
  H           61.663270       18.944160       54.495770
  H           48.168690       15.490120       50.201460
  H           56.201860        2.217810       50.229930
  H           63.871690       15.770190       50.106780
  H           45.464490       17.479810       54.494770
  H           37.471210       31.013640       54.431750
  H           29.868400       17.266550       54.350610
  H           45.209840       18.532760       51.092720
  H           36.613870       30.367750       51.056180
  H           30.774460       16.825350       51.054190
  H           48.335110       14.564470       53.514110
  H           57.090310        2.785160       53.496590
  H           62.872240       16.086690       53.495190
  H           44.277520       20.709850       51.789340
  H           35.206560       28.437560       51.680720
  H           33.108630       16.666540       51.817210
  H           49.277310       12.388220       52.843370
  H           58.456360        4.703810       52.757260
  H           60.502220       16.310580       52.849950
  H           41.443760       23.058360       58.860160
  H           34.825130       24.711940       59.481610
  H           36.548000       17.941910       50.028030
  H           52.179630       10.062380       54.619420
  H           58.835000        8.582120       55.059570
  H           57.060210       14.907180       54.965190
  H           45.267640       24.490890       49.832490
  H           31.424500       27.334410       59.283490
  H           36.046030       13.892520       58.938520
  H           48.276850        8.449130       55.412310
  H           62.151110        5.847920       55.027220
  H           57.634660       19.166690       54.920390
  H           44.320160       26.805910       50.023050
  H           29.896710       25.353700       59.463690
  H           38.508620       13.484600       59.176460
  H           49.209170        6.128650       55.266260
  H           63.739590        7.779520       54.833270
  H           55.166990       19.490850       54.607970
  H           40.517670       25.381700       58.959420
  H           33.293170       22.724240       59.549610
  H           39.025640       17.558560       50.151280
  H           53.136280        7.743360       54.578400
  H           60.430270       10.519430       54.978830
  H           54.581420       15.234850       54.772440
  H           43.148200       17.669900       55.349390
  H           38.501560       28.892600       55.182530
  H           31.207140       19.221230       55.052700
  H           50.597100       15.371270       59.382250
  H           55.269080        4.442100       59.527310
  H           62.654750       13.909750       59.246450
  H           51.885670       18.015520       57.257850
  H           52.318920        4.036450       57.485640
  H           64.493580       11.439380       57.361490
  H           41.944580       14.829270       57.344070
  H           41.514340       29.284090       57.060920
  H           29.483050       21.653840       57.015520
  H           49.643530       18.232050       58.196300
  H           53.360580        2.014750       58.364650
  H           65.785450       13.358890       58.142440
  H           44.207500       14.663880       56.472820
  H           40.506180       31.362020       56.281070
  H           28.135720       19.778660       56.213970
  H           48.175860       18.729590       59.368020
  H           35.068230       32.658650       59.383850
  H           29.639970       14.521830       59.392210
  H           45.643310       14.419140       55.182530
  H           58.625890        0.581120       55.140910
  H           64.031230       18.673480       55.135840
  H           47.090580       20.869250       55.041150
  H           33.675300       30.647590       55.038370
  H           31.858750       14.226310       55.136930
  H           46.537130       12.239310       59.567240
  H           59.971490        2.475840       59.368710
  H           61.731980       18.959890       59.548020
  H           48.045590       15.909050       54.947070
  H           55.963380        1.842720       54.940000
  H           64.041110       15.807140       55.067240
  H           45.618980       17.297430       59.567040
  H           37.679300       31.229860       59.520140
  H           29.411960       17.422350       59.586250
  H           45.265990       18.491890       56.203410
  H           36.753360       30.351990       56.162690
  H           30.740580       17.140380       56.160700
  H           48.491220       14.532250       58.411350
  H           56.899620        2.880870       58.343250
  H           62.836500       16.156570       58.419810
  H           44.356140       20.680650       56.866280
  H           35.354730       28.420000       56.804160
  H           33.129820       16.882580       56.756370
  H           49.376970       12.337380       57.708060
  H           58.244920        4.840970       57.668530
  H           60.478290       16.367850       57.728470
  C           42.026510       23.861360       54.616230
  C           33.686010       24.821050       54.355790
  C           36.997230       17.222760       54.357380
  C           51.563140        9.270390       50.076810
  C           59.929080        8.270350       49.957540
  C           56.598420       15.898780       50.100710
  C           44.266940       24.736040       54.244480
  C           31.771190       26.320670       54.415920
  C           36.567990       14.850520       54.686220
  C           49.319260        8.356610       50.312270
  C           61.820070        6.739810       49.943100
  C           56.975300       18.302640       50.065160
  C           43.859450       22.237640       54.269470
  C           34.115840       27.252140       54.216000
  C           34.655960       16.446600       54.214010
  C           49.693130       10.857190       50.360660
  C           59.459260        5.853470       50.184140
  C           58.912160       16.696120       50.396100
  C           43.395970       23.643280       54.391930
  C           33.159250       26.122780       54.340650
  C           36.095040       16.149150       54.437320
  C           50.181590        9.462160       50.234210
  C           60.434500        6.960840       50.008910
  C           57.474020       16.993900       50.173680
  C           43.767310       26.032000       54.316660
  C           30.919940       25.223320       54.511000
  C           37.933150       14.629570       54.838650
  C           49.841160        7.069060       50.243470
  C           62.688920        7.822640       49.846630
  C           55.608000       18.508980       49.900790
  C           41.518630       25.157570       54.637740
  C           32.832380       23.721950       54.392820
  C           38.365000       16.995700       54.470880
  C           52.090340        7.982600       50.059590
  C           60.800240        9.355510       49.910750
  C           55.227180       16.106200       49.991090
  C           41.924110       27.658300       54.456340
  C           30.475790       22.794480       54.484810
  C           40.288040       15.370070       54.748050
  C           51.724420        5.479540       50.189910
  C           63.180270       10.239150       49.904470
  C           53.271190       17.702970       49.856680
  C           42.390660       26.247700       54.484810
  C           31.444190       23.920870       54.474760
  C           38.838930       15.694400       54.706330
  C           51.228480        6.877790       50.148890
  C           62.186750        9.133990       49.866240
  C           54.727500       17.415070       49.899500
  C           43.383940       16.995520       54.530110
  C           38.934100       29.456540       54.360070
  C           30.443960       19.320690       54.285200
  C           50.234770       16.020690       50.188620
  C           54.718950        3.746840       50.339450
  C           63.258190       13.722730       50.118630
  C           47.180010       17.090510       52.233370
  C           55.413040        0.511970       52.257960
  C           65.610150       15.871840       52.234170
  C           46.369310       15.986650       52.362500
  C           38.221920       32.612460       52.322980
  C           27.985800       17.128640       52.327560
  C           50.873390       17.840100       51.654330
  C           52.905410        3.355960       51.898750
  C           64.354110       12.300050       51.744830
  C           42.665230       15.302910       52.952290
  C           40.684580       29.726750       52.706280
  C           29.200650       20.722830       52.753670
  C           49.556490       17.930930       52.100060
  C           53.494870        2.150150       52.267620
  C           65.076880       13.398830       52.207290
  C           43.969400       15.208270       52.473010
  C           40.095260       30.918330       52.291020
  C           28.457550       19.613270       52.356430
  C           45.004190       16.032900       52.962050
  C           38.892590       31.390510       52.854720
  C           28.712870       18.320830       52.862190
  C           48.553440       17.046320       51.650650
  C           54.733020        1.733040       51.737170
  C           64.886930       14.691060       51.674940
  C           47.214920       19.119380       53.770570
  C           35.117670       31.689650       53.801840
  C           30.285880       14.887510       53.803830
  C           46.321510       13.933160       50.852380
  C           58.491140        1.388330       50.733610
  C           63.261880       18.141510       50.820820
  C           46.704940       20.359160       54.162940
  C           34.306230       30.607840       54.154670
  C           31.611250       14.774450       54.232230
  C           46.834820       12.688040       50.478430
  C           59.282370        2.462560       50.318540
  C           61.920980       18.291520       50.459420
  C           46.850660       14.630670       51.952020
  C           57.688790        1.481100       51.884710
  C           63.629840       17.351500       51.924340
  C           46.689890       18.440140       52.657500
  C           35.955440       31.628010       52.674220
  C           29.956700       15.635610       52.659790
  C           47.897770       12.154260       51.197450
  C           59.252630        3.645630       51.048410
  C           60.944820       17.625980       51.192580
  C           45.649410       20.912310       53.447200
  C           34.350210       29.453130       53.383190
  C           32.610250       15.432430       53.522470
  C           48.922170       16.131240       50.640620
  C           55.294090        2.538570       50.723550
  C           63.991440       14.808690       50.591040
  C           44.682630       16.886270       54.037590
  C           38.358160       30.648960       53.928280
  C           29.689810       18.222970       53.876600
  C           51.206750       16.861460       50.722460
  C           53.539210        4.155890       50.952040
  C           63.434410       12.477090       50.713790
  C           42.378220       16.220240       53.960930
  C           40.086480       28.996740       53.730350
  C           30.208340       20.560280       53.699790
  C           45.633700       19.039170       51.953510
  C           35.968500       30.441870       51.924240
  C           30.999250       16.248750       51.946540
  C           47.909870       14.045880       52.661980
  C           57.703620        2.685710       52.606220
  C           62.611470       16.707470       52.644650
  C           45.103480       20.266330       52.340700
  C           35.179250       29.350350       52.270710
  C           32.321600       16.162750       52.371560
  C           48.446710       12.818510       52.289720
  C           58.471330        3.772540       52.194940
  C           61.273020       16.828800       52.285540
  C           42.083790       23.905840       59.094330
  C           33.744740       24.834360       59.469470
  C           36.974250       16.958760       49.842050
  C           51.547050        9.190480       54.768860
  C           59.911070        8.425460       55.022240
  C           56.629210       15.903520       54.898580
  C           44.300850       24.748490       59.621300
  C           31.828580       26.329160       59.364530
  C           36.717070       14.701310       59.214590
  C           49.332870        8.289900       55.210210
  C           61.782140        6.869370       54.996750
  C           56.965720       18.311910       54.866820
  C           43.929870       22.269250       59.165710
  C           34.184840       27.257000       59.237190
  C           34.755840       16.307820       59.296330
  C           49.719140       10.802430       55.177050
  C           59.417430        6.013500       55.259290
  C           58.931590       16.739670       55.211100
  C           43.454110       23.674050       59.303300
  C           33.219560       26.133790       59.365530
  C           36.200700       15.987510       59.441390
  C           50.183580        9.395360       55.038170
  C           60.401130        7.110490       55.076000
  C           57.488190       17.012880       54.979920
  C           43.686430       25.959250       49.769570
  C           30.977330       25.232450       59.459510
  C           38.084750       14.472730       59.338750
  C           49.849680        6.998090       55.132250
  C           62.665760        7.939240       54.892610
  C           55.594870       18.494690       54.697470
  C           41.570170       25.198180       59.157150
  C           32.892290       23.734040       59.514470
  C           38.348510       16.741390       49.916320
  C           52.072830        7.901610       54.738190
  C           60.797380        9.497030       54.969070
  C           55.254780       16.087990       54.782400
  C           41.942760       27.688380       59.487490
  C           30.523050       22.811400       59.481510
  C           40.411610       15.226470       59.625680
  C           51.729480        5.397520       54.984310
  C           63.180860       10.355140       54.953940
  C           53.265420       17.657960       54.685030
  C           42.417050       26.275490       59.470060
  C           31.501400       23.930950       59.504310
  C           38.955790       15.533490       59.637620
  C           51.226000        6.797590       54.929450
  C           62.180880        9.256120       54.918100
  C           54.729550       17.387860       54.693090
  C           43.518340       16.870660       59.578190
  C           39.070410       29.600940       59.416700
  C           30.236830       19.400550       59.457520
  C           50.171490       16.207470       54.931040
  C           54.609230        3.506560       55.015070
  C           63.367800       13.775030       55.146390
  C           47.290330       17.088410       57.273080
  C           55.457500        0.550310       57.273480
  C           65.647940       15.983740       57.255860
  C           46.480300       15.981130       57.334810
  C           56.824950        0.423020       57.281250
  C           27.980960       17.220390       57.288020
  C           51.044910       17.544440       56.754280
  C           53.123530        3.562380       56.928010
  C           64.384460       12.400130       56.863990
  C           42.745510       15.374410       57.836390
  C           40.671250       29.707410       57.601330
  C           29.474980       20.719000       57.570270
  C           49.760420       17.665880       57.279850
  C           53.716280        2.398120       57.415450
  C           65.116090       13.502280       57.303050
  C           44.044360       15.288680       57.342480
  C           40.086540       30.894300       57.162970
  C           28.702900       19.647140       57.128720
  C           45.105180       16.017230       57.914250
  C           38.958640       31.444450       57.802140
  C           28.706250       18.416700       57.811800
  C           48.658270       17.032190       56.676620
  C           54.777880        1.770280       56.736260
  C           64.958860       14.773790       56.718830
  C           47.376200       19.162460       58.772650
  C           35.104400       31.761480       58.771550
  C           30.391290       14.992460       58.761700
  C           46.415110       13.950570       55.788750
  C           58.579880        1.479240       55.751510
  C           63.265720       18.215020       55.756390
  C           46.869460       20.409250       59.155460
  C           34.299560       30.678800       59.136540
  C           31.738640       14.831300       59.097810
  C           46.897670       12.698550       55.396680
  C           59.357140        2.576640       55.372090
  C           61.929590       18.354830       55.368900
  C           46.972570       14.636760       56.882510
  C           57.690180        1.561830       56.836710
  C           63.625720       17.422120       56.860910
  C           46.807360       18.440070       57.708660
  C           36.005140       31.665760       57.696810
  C           30.006130       15.808450       57.683270
  C           47.969960       12.139990       56.080860
  C           59.221730        3.776160       56.060840
  C           60.940960       17.680060       56.075780
  C           45.775200       20.937230       58.478350
  C           34.408340       29.484020       58.434740
  C           32.708720       15.510090       58.369530
  C           48.891570       16.341910       55.470650
  C           55.181670        2.334630       55.510780
  C           64.113790       14.862740       55.594310
  C           44.811440       16.778320       59.063460
  C           38.500950       30.791270       58.964300
  C           29.452040       18.338920       59.005320
  C           51.241450       16.795550       55.597390
  C           53.587330        4.115380       55.736080
  C           63.487930       12.558950       55.811650
  C           42.489940       16.175180       58.947580
  C           40.141730       29.056740       58.712520
  C           30.252990       20.578310       58.715400
  C           45.722510       19.023830       57.031450
  C           36.067830       30.446820       56.998800
  C           31.017220       16.486800       56.980970
  C           48.039500       14.025630       57.564000
  C           57.591320        2.790900       57.511930
  C           62.592350       16.774710       57.562200
  C           45.201410       20.259260       57.403510
  C           35.284070       29.353780       57.357910
  C           32.362680       16.351410       57.314700
  C           48.546140       12.788430       57.171130
  C           58.340590        3.900230       57.132800
  C           61.257750       16.889400       57.178300
  O           45.168770       22.180680       53.827120
  O           33.496600       28.377540       53.706460
  O           33.941110       15.290120       53.961830
  O           48.397130       10.887330       50.837250
  O           60.084920        4.709960       50.644400
  O           59.594850       17.813740       50.835460
  O           43.183800       21.250000       54.502040
  O           35.300430       27.202420       54.497660
  O           34.163930       17.561910       54.231730
  O           50.344290       11.855940       50.105680
  O           58.260160        5.937320       49.979140
  O           59.432320       15.605800       50.235010
  O           40.590700       27.735470       54.097930
  O           31.062230       21.629010       54.028830
  O           41.050930       16.454810       54.357680
  O           53.031550        5.428840       50.635740
  O           62.594840       11.421650       50.310480
  O           52.550200       16.641760       50.371210
  O           42.627980       28.624720       54.688810
  O           29.308030       22.879980       54.823910
  O           40.755220       14.286920       55.052900
  O           51.066420        4.494650       49.905370
  O           64.456840       10.195890       59.601580
  O           52.863360       18.816000       59.409730
  O           45.281130       22.202790       58.869320
  O           33.565300       28.412280       58.797640
  O           34.069160       15.283550       58.673390
  O           48.436420       10.865090       55.689690
  O           60.044260        4.855530       55.684510
  O           59.593490       17.855650       55.687300
  O           43.214720       21.288730       59.276420
  O           35.378480       27.181460       59.473450
  O           34.233750       17.345910       59.665600
  O           50.381910       11.786770       54.894900
  O           58.216000        6.111760       55.083470
  O           59.470960       15.662370       55.023930
  O           40.626980       27.782510       59.072030
  O           31.118180       21.629610       59.082680
  O           41.170270       16.362490       59.403060
  O           53.077210        5.354130       55.291550
  O           62.617910       11.508770       55.462890
  O           52.558440       16.563480       55.149470
  O           42.528610       28.573870       49.847230
  O           29.246120       22.843060       49.784010
  O           40.790370       14.032890       49.788290
  O           51.042200        4.405830       54.820330
  O           64.348690       10.256800       54.621810
  O           52.747700       18.713270       54.365040
  H           41.469680       23.074400       64.696750
  H           34.857250       24.773320       64.267250
  H           36.695440       18.297200       64.130750
  H           52.295750       10.223490       59.958700
  H           58.943430        8.490190       59.947750
  H           57.108540       14.974340       60.121380
  H           45.416780       24.640530       64.023230
  H           31.463740       27.408370       64.359640
  H           35.955870       14.102730       64.704510
  H           48.343310        8.591960       60.390590
  H           62.296180        5.801590       59.933220
  H           57.750040       19.224140       60.071310
  H           44.511140       26.973260       64.168780
  H           29.934500       25.427040       64.542930
  H           38.418810       13.710600       64.982090
  H           49.288140        6.272540       60.254990
  H           63.857860        7.758090       59.748930
  H           55.287410       19.588650       59.765460
  H           40.545700       25.410390       64.723930
  H           33.321040       22.788060       64.317330
  H           39.164280       17.891500       64.322800
  H           53.254630        7.901090       59.938390
  H           60.510020       10.450450       59.874280
  H           54.630170       15.343350       59.938000
  H           43.307380       17.461740       60.465660
  H           38.695910       29.103320       60.307560
  H           30.812540       19.319360       60.376560
  H           50.430950       15.744400       63.958810
  H           55.028330        4.011860       64.027810
  H           62.794150       13.937980       64.247330
  H           51.725530       18.578350       62.018090
  H           52.069310        3.753260       62.322150
  H           64.586130       11.402530       62.160170
  H           41.972800       14.761510       62.479850
  H           41.676170       29.442140       62.171520
  H           29.103090       21.771670       62.261320
  H           49.421370       18.761760       62.801130
  H           53.081120        1.629830       62.972570
  H           65.867210       13.312640       62.976460
  H           44.254270       14.580480       61.629120
  H           40.666410       31.538820       61.441050
  H           27.785460       19.845370       61.560520
  H           48.075900       18.729210       64.337830
  H           35.228460       32.639020       64.408020
  H           29.592570       14.528950       64.373680
  H           45.644850       14.466110       60.188190
  H           58.541070        0.577150       60.063240
  H           64.117010       18.670200       60.146770
  H           47.292440       20.940070       60.004300
  H           33.628840       30.747010       59.988970
  H           32.029200       14.214030       59.943470
  H           46.569990       12.264690       64.491260
  H           60.118100        2.593880       64.474530
  H           61.755180       19.021550       64.451730
  H           48.260610       15.567510       60.157420
  H           56.293780        2.295200       60.185900
  H           63.963610       15.847580       60.062740
  H           45.556400       17.557200       64.450740
  H           37.563130       31.091030       64.387710
  H           29.960320       17.343940       64.306570
  H           45.301760       18.610150       61.048680
  H           36.705790       30.445140       61.012140
  H           30.866380       16.902750       61.010150
  H           48.427030       14.641860       63.470070
  H           57.182230        2.862550       63.452550
  H           62.964150       16.164080       63.451160
  H           44.369440       20.787240       61.745300
  H           35.298470       28.514950       61.636680
  H           33.200550       16.743930       61.773180
  H           49.369230       12.465610       62.799340
  H           58.548270        4.781200       62.713220
  H           60.594130       16.387970       62.805910
  H           41.535670       23.135760       68.816130
  H           34.917050       24.789340       69.437580
  H           36.639920       18.019300       59.983990
  H           52.271550       10.139770       64.575380
  H           58.926910        8.659510       65.015540
  H           57.152130       14.984570       64.921150
  H           45.359550       24.568280       59.788460
  H           31.516410       27.411800       69.239450
  H           36.137950       13.969910       68.894480
  H           48.368770        8.526520       65.368280
  H           62.243020        5.925310       64.983180
  H           57.726570       19.244080       64.876350
  H           44.412080       26.883300       59.979010
  H           29.988630       25.431090       69.419660
  H           38.600540       13.561990       69.132430
  H           49.301090        6.206050       65.222220
  H           63.831510        7.856910       64.789240
  H           55.258910       19.568240       64.563930
  H           40.609590       25.459090       68.915390
  H           33.385080       22.801630       69.505580
  H           39.117560       17.635960       60.107250
  H           53.228200        7.820750       64.534370
  H           60.522190       10.596820       64.934790
  H           54.673340       15.312240       64.728410
  H           43.240120       17.747290       65.305360
  H           38.593480       28.970000       65.138490
  H           31.299060       19.298630       65.008670
  H           50.689020       15.448660       69.338220
  H           55.360990        4.519490       69.483280
  H           62.746670       13.987140       69.202420
  H           51.977590       18.092910       67.213810
  H           52.410840        4.113840       67.441610
  H           64.585500       11.516770       67.317460
  H           42.036490       14.906660       67.300030
  H           41.606260       29.361480       67.016890
  H           29.574960       21.731230       66.971490
  H           49.735450       18.309440       68.152260
  H           53.452500        2.092140       68.320620
  H           65.877370       13.436280       68.098400
  H           44.299420       14.741270       66.428790
  H           40.598100       31.439410       66.237030
  H           28.227640       19.856050       66.169930
  H           48.267770       18.806980       69.323980
  H           35.160150       32.736040       69.339810
  H           29.731880       14.599220       69.348170
  H           45.735220       14.496530       65.138490
  H           58.717810        0.658520       65.096880
  H           64.123150       18.750870       65.091800
  H           47.182500       20.946640       64.997120
  H           33.767210       30.724980       64.994330
  H           31.950670       14.303710       65.092900
  H           46.629040       12.316700       69.523200
  H           60.063400        2.553240       69.324680
  H           61.823900       19.037280       69.503980
  H           48.137510       15.986440       64.903030
  H           56.055290        1.920110       64.895970
  H           64.133030       15.884530       65.023200
  H           45.710900       17.374820       69.523000
  H           37.771220       31.307260       69.476110
  H           29.503870       17.499740       69.542220
  H           45.357900       18.569280       66.159380
  H           36.845280       30.429380       66.118660
  H           30.832500       17.217770       66.116670
  H           48.583140       14.609650       68.367310
  H           56.991540        2.958260       68.299210
  H           62.928420       16.233960       68.375770
  H           44.448060       20.758040       66.822250
  H           35.446650       28.497390       66.760120
  H           33.221740       16.959970       66.712330
  H           49.468890       12.414770       67.664020
  H           58.336840        4.918360       67.624500
  H           60.570210       16.445240       67.684430
  C           42.118430       23.938750       64.572200
  C           33.777930       24.898440       64.311750
  C           37.089150       17.300150       64.313340
  C           51.655060        9.347790       60.032780
  C           60.021000        8.347740       59.913500
  C           56.690340       15.976170       60.056670
  C           44.358860       24.813430       64.200440
  C           31.863110       26.398060       64.371880
  C           36.659910       14.927910       64.642190
  C           49.411180        8.434000       60.268230
  C           61.911990        6.817200       59.899070
  C           57.067220       18.380030       60.021130
  C           43.951370       22.315030       64.225430
  C           34.207760       27.329530       64.171970
  C           34.747880       16.523990       64.169980
  C           49.785050       10.934580       60.316620
  C           59.551180        5.930870       60.140100
  C           59.004080       16.773510       60.352060
  C           43.487890       23.720670       64.347890
  C           33.251170       26.200170       64.296620
  C           36.186960       16.226540       64.393290
  C           50.273510        9.539550       60.190180
  C           60.526420        7.038230       59.964880
  C           57.565940       17.071290       60.129650
  C           43.859220       26.109390       64.272620
  C           31.011860       25.300710       64.466960
  C           38.025060       14.706970       64.794610
  C           49.933080        7.146450       60.199440
  C           62.780840        7.900040       59.802590
  C           55.699920       18.586380       59.856750
  C           41.610540       25.234960       64.593700
  C           32.924300       23.799350       64.348790
  C           38.456920       17.073100       64.426840
  C           52.182260        8.059990       60.015550
  C           60.892160        9.432900       59.866710
  C           55.319100       16.183590       59.947060
  C           42.016030       27.735690       64.412310
  C           30.567710       22.871870       64.440780
  C           40.379950       15.447460       64.704020
  C           51.816340        5.556930       60.145880
  C           63.272190       10.316540       59.860440
  C           53.363110       17.780360       59.812650
  C           42.482580       26.325090       64.440780
  C           31.536110       23.998260       64.430720
  C           38.930850       15.771790       64.662300
  C           51.320400        6.955180       60.104860
  C           62.278670        9.211390       59.822210
  C           54.819420       17.492470       59.855460
  C           43.475860       17.072910       64.486080
  C           39.026020       29.533930       64.316030
  C           30.535880       19.398080       64.241160
  C           50.326690       16.098080       60.144580
  C           54.810870        3.824230       60.295410
  C           63.350110       13.800120       60.074590
  C           47.271930       17.167900       62.189340
  C           55.504960        0.589360       62.213930
  C           65.702070       15.949230       62.190130
  C           46.461220       16.064040       62.318470
  C           38.313840       32.689850       62.278940
  C           28.077720       17.206030       62.283520
  C           50.965310       17.917490       61.610300
  C           52.997330        3.433350       61.854720
  C           64.446030       12.377440       61.700800
  C           42.757140       15.380300       62.908260
  C           40.776500       29.804140       62.662250
  C           29.292570       20.800220       62.709640
  C           49.648410       18.008320       62.056030
  C           53.586790        2.227540       62.223590
  C           65.168790       13.476220       62.163250
  C           44.061320       15.285660       62.428980
  C           40.187180       30.995720       62.246980
  C           28.549470       19.690660       62.312390
  C           45.096100       16.110290       62.918010
  C           38.984510       31.467900       62.810690
  C           28.804780       18.398220       62.818160
  C           48.645360       17.123710       61.606610
  C           54.824940        1.810430       61.693130
  C           64.978850       14.768450       61.630910
  C           47.306840       19.196780       63.726540
  C           35.209590       31.767040       63.757800
  C           30.377800       14.964900       63.759790
  C           46.413430       14.010550       60.808350
  C           58.583060        1.465720       60.689570
  C           63.353800       18.218900       60.776790
  C           46.796860       20.436550       64.118900
  C           34.398150       30.685230       64.110640
  C           31.703170       14.851840       64.188200
  C           46.926730       12.765440       60.434400
  C           59.374280        2.539950       60.274510
  C           62.012900       18.368910       60.415380
  C           46.942580       14.708060       61.907980
  C           57.780700        1.558490       61.840680
  C           63.721760       17.428890       61.880300
  C           46.781810       18.517530       62.613460
  C           36.047350       31.705400       62.630190
  C           30.048610       15.713000       62.615750
  C           47.989690       12.231650       61.153420
  C           59.344540        3.723020       61.004380
  C           61.036740       17.703370       61.148540
  C           45.741330       20.989700       63.403170
  C           34.442130       29.530520       63.339150
  C           32.702170       15.509820       63.478440
  C           49.014090       16.208630       60.596580
  C           55.386010        2.615960       60.679520
  C           64.083350       14.886090       60.547000
  C           44.774550       16.963660       63.993560
  C           38.450070       30.726350       63.884240
  C           29.781730       18.300360       63.832570
  C           51.298670       16.938860       60.678420
  C           53.631120        4.233280       60.908000
  C           63.526330       12.554480       60.669760
  C           42.470140       16.297630       63.916900
  C           40.178400       29.074130       63.686320
  C           30.300260       20.637670       63.655750
  C           45.725610       19.116560       61.909480
  C           36.060420       30.519270       61.880200
  C           31.091170       16.326140       61.902510
  C           48.001790       14.123270       62.617940
  C           57.795540        2.763100       62.562190
  C           62.703390       16.784860       62.600620
  C           45.195390       20.343720       62.296660
  C           35.271170       29.427740       62.226670
  C           32.413520       16.240140       62.327530
  C           48.538630       12.895900       62.245690
  C           58.563250        3.849940       62.150910
  C           61.364940       16.906190       62.241510
  C           42.175710       23.983230       69.050290
  C           33.836650       24.911750       69.425430
  C           37.066170       17.036150       59.798010
  C           51.638970        9.267870       64.724820
  C           60.002980        8.502850       64.978200
  C           56.721130       15.980910       64.854550
  C           44.392770       24.825890       69.577260
  C           31.920490       26.406550       69.320500
  C           36.808980       14.778700       69.170560
  C           49.424780        8.367300       65.166170
  C           61.874060        6.946760       64.952720
  C           57.057630       18.389300       64.822790
  C           44.021790       22.346640       69.121680
  C           34.276760       27.334390       69.193160
  C           34.847760       16.385210       69.252300
  C           49.811050       10.879820       65.133020
  C           59.509350        6.090890       65.215250
  C           59.023510       16.817060       65.167070
  C           43.546030       23.751440       69.259270
  C           33.311480       26.211180       69.321490
  C           36.292620       16.064900       69.397360
  C           50.275500        9.472750       64.994130
  C           60.493050        7.187880       65.031960
  C           57.580110       17.090270       64.935890
  C           43.778350       26.036640       59.725530
  C           31.069250       25.309840       69.415480
  C           38.176670       14.550120       69.294710
  C           49.941600        7.075480       65.088220
  C           62.757680        8.016640       64.848580
  C           55.686790       18.572080       64.653440
  C           41.662090       25.275570       69.113110
  C           32.984210       23.811430       69.470430
  C           38.440420       16.818780       59.872290
  C           52.164750        7.979000       64.694160
  C           60.889300        9.574420       64.925040
  C           55.346690       16.165380       64.738360
  C           42.034680       27.765770       69.443450
  C           30.614970       22.888790       69.437480
  C           40.503530       15.303860       69.581640
  C           51.821400        5.474910       64.940270
  C           63.272780       10.432530       64.909900
  C           53.357340       17.735360       64.640990
  C           42.508960       26.352880       69.426030
  C           31.593320       24.008340       69.460280
  C           39.047700       15.610880       69.593590
  C           51.317920        6.874980       64.885410
  C           62.272790        9.333510       64.874060
  C           54.821470       17.465250       64.649060
  C           43.610260       16.948050       69.534150
  C           39.162330       29.678340       69.372670
  C           30.328750       19.477950       69.413490
  C           50.263410       16.284860       64.887010
  C           54.701150        3.583950       64.971030
  C           63.459720       13.852420       65.102350
  C           47.382250       17.165810       67.229050
  C           55.549410        0.627700       67.229450
  C           65.739850       16.061130       67.211820
  C           46.572220       16.058520       67.290770
  C           56.916870        0.500410       67.237210
  C           28.072880       17.297780       67.243980
  C           51.136830       17.621840       66.710240
  C           53.215450        3.639770       66.883970
  C           64.476380       12.477520       66.819960
  C           42.837430       15.451800       67.792360
  C           40.763170       29.784800       67.557300
  C           29.566900       20.796400       67.526230
  C           49.852340       17.743270       67.235820
  C           53.808190        2.475510       67.371420
  C           65.208010       13.579670       67.259010
  C           44.136270       15.366070       67.298440
  C           40.178460       30.971690       67.118930
  C           28.794820       19.724530       67.084690
  C           45.197100       16.094620       67.870210
  C           39.050560       31.521840       67.758110
  C           28.798170       18.494090       67.767760
  C           48.750190       17.109590       66.632590
  C           54.869800        1.847670       66.692220
  C           65.050780       14.851190       66.674800
  C           47.468110       19.239850       68.728610
  C           35.196320       31.838880       68.727520
  C           30.483210       15.069850       68.717660
  C           46.507030       14.027960       65.744710
  C           58.671800        1.556630       65.707480
  C           63.357640       18.292410       65.712360
  C           46.961380       20.486640       69.111420
  C           34.391480       30.756200       69.092500
  C           31.830560       14.908690       69.053780
  C           46.989590       12.775940       65.352650
  C           59.449060        2.654030       65.328050
  C           62.021510       18.432220       65.324870
  C           47.064490       14.714150       66.838470
  C           57.782090        1.639220       66.792680
  C           63.717640       17.499510       66.816870
  C           46.899280       18.517460       67.664620
  C           36.097060       31.743150       67.652770
  C           30.098040       15.885850       67.639230
  C           48.061880       12.217380       66.036820
  C           59.313650        3.853550       66.016810
  C           61.032880       17.757450       66.031740
  C           45.867120       21.014630       68.434320
  C           34.500260       29.561410       68.390710
  C           32.800640       15.587480       68.325500
  C           48.983480       16.419300       65.426620
  C           55.273590        2.412020       65.466740
  C           64.205710       14.940130       65.550270
  C           44.903360       16.855710       69.019430
  C           38.592870       30.868660       68.920270
  C           29.543960       18.416320       68.961290
  C           51.333370       16.872940       65.553360
  C           53.679240        4.192770       65.692050
  C           63.579850       12.636340       65.767610
  C           42.581860       16.252570       68.903540
  C           40.233640       29.134130       68.668480
  C           30.344910       20.655700       68.671370
  C           45.814430       19.101220       66.987420
  C           36.159740       30.524220       66.954760
  C           31.109140       16.564190       66.936940
  C           48.131420       14.103020       67.519960
  C           57.683240        2.868290       67.467890
  C           62.684270       16.852100       67.518170
  C           45.293330       20.336650       67.359470
  C           35.375990       29.431170       67.313870
  C           32.454590       16.428800       67.270660
  C           48.638060       12.865820       67.127100
  C           58.432500        3.977620       67.088770
  C           61.349670       16.966790       67.134270
  O           45.260680       22.258070       63.783090
  O           33.588520       28.454930       63.662420
  O           34.033030       15.367520       63.917790
  O           48.489050       10.964720       60.793210
  O           60.176840        4.787350       60.600370
  O           59.686770       17.891130       60.791420
  O           43.275720       21.327390       64.458000
  O           35.392340       27.279810       64.453620
  O           34.255840       17.639300       64.187700
  O           50.436210       11.933330       60.061650
  O           58.352080        6.014710       59.935110
  O           59.524240       15.683190       60.190980
  O           40.682620       27.812860       64.053890
  O           31.154140       21.706400       63.984800
  O           41.142850       16.532200       64.313640
  O           53.123470        5.506230       60.591700
  O           62.686760       11.499040       60.266440
  O           52.642120       16.719150       60.327170
  O           42.719900       28.702110       64.644780
  O           29.399950       22.957370       64.779880
  O           40.847140       14.364310       65.008870
  O           51.158340        4.572040       59.861330
  O           64.548750       10.273280       69.557550
  O           52.955280       18.893390       69.365700
  O           45.373050       22.280180       68.825290
  O           33.657220       28.489670       68.753600
  O           34.161080       15.360940       68.629350
  O           48.528340       10.942480       65.645650
  O           60.136180        4.932920       65.640470
  O           59.685410       17.933040       65.643260
  O           43.306640       21.366120       69.232390
  O           35.470390       27.258850       69.429410
  O           34.325670       17.423300       69.621560
  O           50.473830       11.864160       64.850870
  O           58.307920        6.189150       65.039430
  O           59.562880       15.739760       64.979890
  O           40.718900       27.859910       69.027990
  O           31.210100       21.707000       69.038640
  O           41.262190       16.439880       69.359030
  O           53.169130        5.431520       65.247510
  O           62.709830       11.586160       65.418850
  O           52.650360       16.640870       65.105440
  O           42.620530       28.651260       59.803190
  O           29.338030       22.920450       59.739970
  O           40.882290       14.110280       59.744250
  O           51.134120        4.483220       64.776300
  O           64.440610       10.334190       64.577770
  O           52.839620       18.790660       64.321010
  H           22.359240       54.849960        4.960960
  H           15.746810       56.548890        4.531460
  H           17.585000       50.072760        4.394960
  H           33.185300       41.999050        0.222910
  H           39.832980       40.265750        0.211960
  H           37.998090       46.749900        0.385590
  H           26.306340       56.416100        4.287440
  H           12.353290       59.183930        4.623850
  H           16.845430       45.878300        4.968720
  H           29.232860       40.367530        0.654800
  H           43.185740       37.577150        0.197430
  H           38.639590       50.999700        0.335520
  H           25.400690       58.748820        4.432990
  H           10.824060       57.202600        4.807140
  H           19.308370       45.486160        5.246300
  H           30.177700       38.048100        0.519200
  H           44.747420       39.533650        0.013140
  H           36.176970       51.364210        0.029670
  H           21.435250       57.185950        4.988140
  H           14.210600       54.563620        4.581540
  H           20.053840       49.667070        4.587010
  H           34.144180       39.676660        0.202600
  H           41.399580       42.226010        0.138490
  H           35.519730       47.118910        0.202210
  H           24.196940       49.237310        0.729870
  H           19.585470       60.878880        0.571770
  H           11.702100       51.094920        0.640770
  H           31.320510       47.519960        4.223020
  H           35.917890       35.787430        4.292020
  H           43.683710       45.713540        4.511550
  H           32.615080       50.353920        2.282310
  H           32.958860       35.528820        2.586360
  H           45.475690       43.178090        2.424380
  H           22.862360       46.537080        2.744060
  H           22.565720       61.217700        2.435730
  H            9.992640       53.547240        2.525530
  H           30.310930       50.537320        3.065340
  H           33.970680       33.405400        3.236780
  H           46.756770       45.088210        3.240670
  H           25.143830       46.356040        1.893330
  H           21.555970       63.314390        1.705260
  H            8.675020       51.620930        1.824730
  H           28.965460       50.504780        4.602050
  H           16.118020       64.414590        4.672230
  H           10.482130       46.304520        4.637890
  H           26.534400       46.241680        0.452400
  H           39.430630       32.352720        0.327450
  H           45.006560       50.445760        0.410980
  H           28.182000       52.715630        0.268510
  H           14.518400       62.522570        0.253180
  H           12.918760       45.989590        0.207680
  H           27.459550       44.040250        4.755470
  H           41.007660       34.369440        4.738740
  H           42.644740       50.797110        4.715940
  H           29.150170       47.343070        0.421640
  H           37.183330       34.070770        0.450110
  H           44.853170       47.623150        0.326950
  H           26.445960       49.332770        4.714950
  H           18.452680       62.866590        4.651920
  H           10.849880       49.119510        4.570780
  H           26.191320       50.385710        1.312890
  H           17.595350       62.220700        1.276350
  H           11.755930       48.678310        1.274360
  H           29.316590       46.417430        3.734280
  H           38.071790       34.638120        3.716760
  H           43.853710       47.939650        3.715370
  H           25.259000       52.562810        2.009510
  H           16.188030       60.290520        1.900890
  H           14.090110       48.519500        2.037390
  H           30.258790       44.241180        3.063550
  H           39.437830       36.556770        2.977430
  H           41.483690       48.163530        3.070120
  H           22.425230       54.911320        9.080340
  H           15.806610       56.564900        9.701790
  H           17.529480       49.794860        0.248200
  H           33.161110       41.915330        4.839590
  H           39.816470       40.435070        5.279750
  H           38.041690       46.760130        5.185370
  H           26.249110       56.343850        0.052670
  H           12.405970       59.187370        9.503670
  H           17.027510       45.745480        9.158690
  H           29.258330       40.302080        5.632490
  H           43.132580       37.700880        5.247390
  H           38.616130       51.019640        5.140560
  H           25.301630       58.658860        0.243220
  H           10.878190       57.206660        9.683870
  H           19.490100       45.337560        9.396640
  H           30.190650       37.981610        5.486430
  H           44.721070       39.632470        5.053450
  H           36.148470       51.343800        4.828150
  H           21.499150       57.234660        9.179600
  H           14.274640       54.577190        9.769790
  H           20.007110       49.411520        0.371460
  H           34.117760       39.596320        4.798580
  H           41.411740       42.372390        5.199000
  H           35.562890       47.087800        4.992620
  H           24.129670       49.522850        5.569570
  H           19.483030       60.745560        5.402700
  H           12.188620       51.074190        5.272880
  H           31.578580       47.224230        9.602430
  H           36.250550       36.295060        9.747490
  H           43.636220       45.762700        9.466630
  H           32.867150       49.868470        7.478020
  H           33.300400       35.889400        7.705820
  H           45.475060       43.292330        7.581670
  H           22.926050       46.682230        7.564240
  H           22.495820       61.137050        7.281100
  H           10.464520       53.506800        7.235700
  H           30.625010       50.085000        8.416470
  H           34.342050       33.867700        8.584830
  H           46.766930       45.211840        8.362610
  H           25.188970       46.516830        6.693000
  H           21.487660       63.214970        6.501250
  H            9.117200       51.631620        6.434140
  H           29.157330       50.582550        9.588190
  H           16.049710       64.511600        9.604020
  H           10.621440       46.374780        9.612380
  H           26.624780       46.272100        5.402700
  H           39.607360       32.434080        5.361090
  H           45.012710       50.526440        5.356010
  H           28.072060       52.722200        5.261330
  H           14.656770       62.500550        5.258540
  H           12.840230       46.079270        5.357110
  H           27.518600       44.092270        9.787410
  H           40.952960       34.328800        9.588890
  H           42.713460       50.812850        9.768200
  H           29.027070       47.762010        5.167250
  H           36.944850       33.695680        5.160180
  H           45.022590       47.660100        5.287410
  H           26.600460       49.150380        9.787210
  H           18.660780       63.082820        9.740320
  H           10.393430       49.275300        9.806430
  H           26.247460       50.344840        6.423590
  H           17.734840       62.204940        6.382870
  H           11.722060       48.993330        6.380880
  H           29.472690       46.385210        8.631520
  H           37.881100       34.733820        8.563420
  H           43.817970       48.009520        8.639990
  H           25.337620       52.533600        7.086460
  H           16.336210       60.272960        7.024330
  H           14.111290       48.735530        6.976540
  H           30.358440       44.190330        7.928230
  H           39.226400       36.693920        7.888710
  H           41.459770       48.220800        7.948640
  C           23.007990       55.714310        4.836410
  C           14.667490       56.674000        4.575960
  C           17.978700       49.075710        4.577550
  C           32.544620       41.123350        0.296990
  C           40.910560       40.123310        0.177710
  C           37.579900       47.751740        0.320880
  C           25.248420       56.588990        4.464650
  C           12.752660       58.173630        4.636090
  C           17.549460       46.703480        4.906400
  C           30.300740       40.209570        0.532450
  C           42.801540       38.592770        0.163280
  C           37.956770       50.155590        0.285340
  C           24.840930       54.090590        4.489640
  C           15.097320       59.105100        4.436180
  C           15.637430       48.299550        4.434190
  C           30.674610       42.710150        0.580830
  C           40.440740       37.706430        0.404310
  C           39.893640       48.549070        0.616270
  C           24.377450       55.496240        4.612100
  C           14.140720       57.975730        4.560830
  C           17.076520       48.002100        4.657500
  C           31.163070       41.315110        0.454390
  C           41.415980       38.813800        0.229090
  C           38.455490       48.846850        0.393860
  C           24.748780       57.884950        4.536830
  C           11.901420       57.076270        4.731170
  C           18.914620       46.482530        5.058820
  C           30.822640       38.922010        0.463650
  C           43.670400       39.675600        0.066800
  C           36.589480       50.361940        0.120960
  C           22.500100       57.010520        4.857910
  C           13.813850       55.574910        4.613000
  C           19.346470       48.848660        4.691050
  C           33.071820       39.835550        0.279760
  C           41.781720       41.208460        0.130920
  C           36.208660       47.959160        0.211270
  C           22.905590       59.511250        4.676520
  C           11.457260       54.647440        4.704990
  C           21.269510       47.223020        4.968230
  C           32.705900       37.332490        0.410090
  C           44.161750       42.092110        0.124650
  C           34.252670       49.555920        0.076860
  C           23.372130       58.100660        4.704990
  C           12.425670       55.773820        4.694930
  C           19.820410       47.547350        4.926510
  C           32.209960       38.730740        0.369070
  C           43.168230       40.986950        0.086420
  C           35.708980       49.268030        0.119670
  C           24.365420       48.848480        4.750290
  C           19.915570       61.309490        4.580240
  C           11.425430       51.173650        4.505370
  C           31.216240       47.873640        0.408790
  C           35.700430       35.599790        0.559620
  C           44.239670       45.575680        0.338800
  C           28.161490       48.943460        2.453550
  C           36.394520       32.364920        2.478140
  C           46.591630       47.724800        2.454340
  C           27.350780       47.839600        2.582680
  C           19.203400       64.465420        2.543150
  C            8.967280       48.981590        2.547730
  C           31.854870       49.693050        1.874510
  C           33.886890       35.208910        2.118930
  C           45.335590       44.153000        1.965010
  C           23.646700       47.155870        3.172470
  C           21.666060       61.579700        2.926460
  C           10.182130       52.575790        2.973850
  C           30.537970       49.783890        2.320240
  C           34.476340       34.003110        2.487800
  C           46.058350       45.251790        2.427460
  C           24.950880       47.061220        2.693190
  C           21.076740       62.771290        2.511190
  C            9.439030       51.466220        2.576600
  C           25.985660       47.885850        3.182230
  C           19.874070       63.243470        3.074900
  C            9.694340       50.173790        3.082370
  C           29.534920       48.899280        1.870830
  C           35.714500       33.585990        1.957340
  C           45.868410       46.544020        1.895120
  C           28.196390       50.972340        3.990750
  C           16.099140       63.542600        4.022010
  C           11.267360       46.740460        4.024000
  C           27.302990       45.786110        1.072560
  C           39.472620       33.241280        0.953780
  C           44.243360       49.994460        1.041000
  C           27.686410       52.212110        4.383110
  C           15.287710       62.460790        4.374850
  C           12.592730       46.627410        4.452410
  C           27.816290       44.541000        0.698610
  C           40.263840       34.315510        0.538720
  C           42.902460       50.144470        0.679590
  C           27.832140       46.483630        2.172190
  C           38.670260       33.334050        2.104890
  C           44.611310       49.204460        2.144510
  C           27.671370       50.293100        2.877670
  C           16.936910       63.480960        2.894400
  C           10.938170       47.488560        2.879960
  C           28.879250       44.007220        1.417630
  C           40.234100       35.498590        1.268590
  C           41.926300       49.478940        1.412750
  C           26.630890       52.765270        3.667380
  C           15.331680       61.306090        3.603360
  C           13.591720       47.285390        3.742650
  C           29.903650       47.984190        0.860790
  C           36.275570       34.391520        0.943730
  C           44.972910       46.661650        0.811210
  C           25.664110       48.739220        4.257770
  C           19.339630       62.501910        4.148450
  C           10.671290       50.075930        4.096780
  C           32.188220       48.714420        0.942630
  C           34.520680       36.008840        1.172220
  C           44.415890       44.330050        0.933970
  C           23.359700       48.073190        4.181110
  C           21.067950       60.849690        3.950530
  C           11.189810       52.413240        3.919960
  C           26.615170       50.892120        2.173690
  C           16.949970       62.294830        2.144420
  C           11.980730       48.101700        2.166720
  C           28.891340       45.898830        2.882150
  C           38.685100       34.538670        2.826400
  C           43.592940       48.560420        2.864830
  C           26.084950       52.119280        2.560870
  C           16.160730       61.203300        2.490880
  C           13.303080       48.015700        2.591740
  C           29.428190       44.671470        2.509900
  C           39.452800       35.625500        2.415120
  C           42.254500       48.681760        2.505720
  C           23.065270       55.758790        9.314500
  C           14.726210       56.687320        9.689640
  C           17.955730       48.811710        0.062220
  C           32.528530       41.043440        4.989030
  C           40.892540       40.278420        5.242410
  C           37.610690       47.756470        5.118760
  C           25.282330       56.601450        9.841470
  C           12.810050       58.182110        9.584710
  C           17.698540       46.554270        9.434770
  C           30.314340       40.142860        5.430380
  C           42.763620       38.722320        5.216930
  C           37.947190       50.164870        5.087000
  C           24.911350       54.122210        9.385890
  C           15.166310       59.109950        9.457370
  C           15.737320       48.160770        9.516510
  C           30.700610       42.655380        5.397230
  C           40.398910       37.866460        5.479460
  C           39.913070       48.592630        5.431280
  C           24.435590       55.527000        9.523480
  C           14.201040       57.986740        9.585700
  C           17.182180       47.840470        9.661570
  C           31.165060       41.248320        5.258340
  C           41.382610       38.963450        5.296180
  C           38.469670       48.865830        5.200100
  C           24.667910       57.812210       -0.010250
  C           11.958800       57.085400        9.679690
  C           19.066220       46.325680        9.558920
  C           30.831160       38.851050        5.352430
  C           43.647240       39.792200        5.112790
  C           36.576350       50.347640        4.917650
  C           22.551650       57.051130        9.377320
  C           13.873760       55.587000        9.734640
  C           19.329980       48.594350        0.136500
  C           33.054310       39.754570        4.958370
  C           41.778860       41.349980        5.189250
  C           36.236250       47.940950        5.002570
  C           22.924240       59.541330        9.707660
  C           11.504520       54.664360        9.701690
  C           21.393080       47.079430        9.845850
  C           32.710960       37.250470        5.204480
  C           44.162340       42.208090        5.174110
  C           34.246900       49.510920        4.905200
  C           23.398520       58.128450        9.690240
  C           12.482880       55.783900        9.724490
  C           19.937260       47.386440        9.857800
  C           32.207470       38.650550        5.149620
  C           43.162350       41.109080        5.138270
  C           35.711030       49.240810        4.913270
  C           24.499820       48.723610        9.798360
  C           20.051890       61.453900        9.636880
  C           11.218310       51.253510        9.677700
  C           31.152970       48.060420        5.151220
  C           35.590710       35.359520        5.235240
  C           44.349280       45.627980        5.366560
  C           28.271810       48.941370        7.493260
  C           36.438970       32.403270        7.493660
  C           46.629410       47.836700        7.476030
  C           27.461780       47.834090        7.554980
  C           37.806430       32.275980        7.501420
  C            8.962440       49.073350        7.508190
  C           32.026390       49.397400        6.974450
  C           34.105010       35.415330        7.148180
  C           45.365940       44.253090        7.084170
  C           23.726980       47.227360        8.056570
  C           21.652720       61.560370        7.821510
  C           10.456450       52.571960        7.790440
  C           30.741900       49.518840        7.500030
  C           34.697750       34.251070        7.635630
  C           46.097570       45.355230        7.523220
  C           25.025830       47.141630        7.562650
  C           21.068020       62.747260        7.383140
  C            9.684380       51.500100        7.348900
  C           26.086660       47.870190        8.134420
  C           19.940120       63.297400        8.022320
  C            9.687730       50.269650        8.031970
  C           29.639750       48.885150        6.896800
  C           35.759350       33.623240        6.956430
  C           45.940330       46.626750        6.939010
  C           28.357670       51.015410        8.992820
  C           16.085880       63.614440        8.991730
  C           11.372770       46.845420        8.981870
  C           27.396580       45.803530        6.008920
  C           39.561350       33.332200        5.971690
  C           44.247200       50.067970        5.976570
  C           27.850930       52.262210        9.375630
  C           15.281040       62.531760        9.356720
  C           12.720110       46.684250        9.317990
  C           27.879140       44.551510        5.616860
  C           40.338620       34.429590        5.592270
  C           42.911070       50.207780        5.589080
  C           27.954050       46.489710        7.102680
  C           38.671650       33.414780        7.056890
  C           44.607190       49.275070        7.081080
  C           27.788830       50.293030        7.928830
  C           16.986620       63.518720        7.916980
  C           10.987600       47.661410        7.903440
  C           28.951440       43.992950        6.301030
  C           40.203210       35.629110        6.281020
  C           41.922440       49.533010        6.295950
  C           26.756680       52.790190        8.698530
  C           15.389820       61.336970        8.654920
  C           13.690190       47.363040        8.589710
  C           29.873040       48.194870        5.690830
  C           36.163150       34.187580        5.730950
  C           45.095270       46.715690        5.814480
  C           25.792920       48.631280        9.283640
  C           19.482430       62.644230        9.184480
  C           10.433520       50.191880        9.225500
  C           32.222930       48.648500        5.817570
  C           34.568800       35.968330        5.956260
  C           44.469410       44.411910        6.031820
  C           23.471410       48.028130        9.167750
  C           21.123200       60.909700        8.932690
  C           11.234470       52.431270        8.935580
  C           26.703980       50.876790        7.251630
  C           17.049300       62.299780        7.218970
  C           11.998700       48.339760        7.201150
  C           29.020980       45.878580        7.784170
  C           38.572790       34.643860        7.732100
  C           43.573820       48.627670        7.782380
  C           26.182880       52.112210        7.623680
  C           16.265550       61.206740        7.578080
  C           13.344150       48.204370        7.534870
  C           29.527620       44.641390        7.391310
  C           39.322060       35.753190        7.352980
  C           42.239230       48.742360        7.398480
  O           26.150240       54.033640        4.047300
  O           14.478080       60.230500        3.926630
  O           14.922590       47.143080        4.182000
  O           29.378610       42.740290        1.057420
  O           41.066390       36.562910        0.864580
  O           40.576330       49.666700        1.055630
  O           24.165280       53.102960        4.722210
  O           16.281900       59.055380        4.717830
  O           15.145400       49.414870        4.451910
  O           31.325760       43.708890        0.325860
  O           39.241640       37.790270        0.199320
  O           40.413800       47.458750        0.455190
  O           21.572180       59.588420        4.318100
  O           12.043700       53.481970        4.249010
  O           22.032410       48.307760        4.577850
  O           34.013030       37.281800        0.855910
  O           43.576320       43.274600        0.530650
  O           33.531680       48.494710        0.591380
  O           23.609460       60.477680        4.908990
  O           10.289510       54.732930        5.044090
  O           21.736700       46.139870        5.273080
  O           32.047890       36.347610        0.125540
  O           45.438310       42.048840        9.821760
  O           33.844840       50.668950        9.629910
  O           26.262600       54.055740        9.089500
  O           14.546770       60.265240        9.017810
  O           15.050640       47.136500        8.893560
  O           29.417900       42.718040        5.909860
  O           41.025730       36.708480        5.904680
  O           40.574970       49.708600        5.907470
  O           24.196200       53.141680        9.496600
  O           16.359950       59.034410        9.693630
  O           15.215230       49.198870        9.885780
  O           31.363390       43.639730        5.115080
  O           39.197470       37.964710        5.303640
  O           40.452440       47.515320        5.244110
  O           21.608460       59.635470        9.292200
  O           12.099660       53.482560        9.302850
  O           22.151750       48.215440        9.623240
  O           34.058690       37.207080        5.511720
  O           43.599380       43.361720        5.683060
  O           33.539920       48.416440        5.369650
  O           23.510090       60.426820        0.067400
  O           10.227590       54.696010        0.004180
  O           21.771840       45.885840        0.008460
  O           32.023680       36.258790        5.040510
  O           45.330170       42.109760        4.841980
  O           33.729180       50.566220        4.585220
  H           22.451150       54.927350       14.916920
  H           15.838720       56.626280       14.487420
  H           17.676920       50.150160       14.350930
  H           33.277220       42.076450       10.178880
  H           39.924900       40.343140       10.167930
  H           38.090010       46.827290       10.341560
  H           26.398260       56.493490       14.243400
  H           12.445210       59.261320       14.579810
  H           16.937350       45.955690       14.924690
  H           29.324780       40.444920       10.610770
  H           43.277660       37.654540       10.153390
  H           38.731510       51.077090       10.291480
  H           25.492610       58.826210       14.388960
  H           10.915980       57.279990       14.763100
  H           19.400290       45.563550       15.202260
  H           30.269620       38.125490       10.475170
  H           44.839340       39.611040        9.969110
  H           36.268880       51.441610        9.985630
  H           21.527170       57.263340       14.944100
  H           14.302510       54.641010       14.537500
  H           20.145750       49.744460       14.542980
  H           34.236100       39.754050       10.158570
  H           41.491500       42.303400       10.094450
  H           35.611640       47.196310       10.158170
  H           24.288860       49.314700       10.685840
  H           19.677390       60.956270       10.527740
  H           11.794010       51.172320       10.596730
  H           31.412430       47.597350       14.178990
  H           36.009810       35.864820       14.247980
  H           43.775630       45.790940       14.467510
  H           32.707000       50.431310       12.238270
  H           33.050780       35.606210       12.542330
  H           45.567610       43.255480       12.380340
  H           22.954270       46.614470       12.700030
  H           22.657640       61.295090       12.391690
  H           10.084560       53.624630       12.481490
  H           30.402850       50.614710       13.021310
  H           34.062600       33.482790       13.192750
  H           46.848690       45.165600       13.196630
  H           25.235750       46.433440       11.849290
  H           21.647890       63.391780       11.661220
  H            8.766940       51.698330       11.780690
  H           29.057380       50.582170       14.558010
  H           16.209940       64.491980       14.628200
  H           10.574040       46.381910       14.593850
  H           26.626320       46.319070       10.408360
  H           39.522540       32.430110       10.283420
  H           45.098480       50.523150       10.366950
  H           28.273920       52.793020       10.224480
  H           14.610320       62.599960       10.209150
  H           13.010670       46.066980       10.163650
  H           27.551470       44.117650       14.711430
  H           41.099570       34.446830       14.694710
  H           42.736660       50.874500       14.671910
  H           29.242090       47.420470       10.377600
  H           37.275250       34.148160       10.406070
  H           44.945080       47.700540       10.282920
  H           26.537880       49.410160       14.670910
  H           18.544600       62.943980       14.607890
  H           10.941790       49.196900       14.526750
  H           26.283240       50.463100       11.268860
  H           17.687270       62.298090       11.232320
  H           11.847850       48.755700       11.230330
  H           29.408510       46.494820       13.690250
  H           38.163700       34.715510       13.672730
  H           43.945630       48.017040       13.671330
  H           25.350920       52.640200       11.965480
  H           16.279950       60.367910       11.856860
  H           14.182030       48.596890       11.993350
  H           30.350700       44.318570       13.019510
  H           39.529750       36.634160       12.933400
  H           41.575610       48.240930       13.026090
  H           22.517150       54.988710       19.036300
  H           15.898520       56.642290       19.657750
  H           17.621400       49.872250       10.204170
  H           33.253030       41.992720       14.795560
  H           39.908390       40.512460       15.235710
  H           38.133600       46.837520       15.141330
  H           26.341030       56.421240       10.008630
  H           12.497890       59.264760       19.459630
  H           17.119430       45.822870       19.114660
  H           29.350240       40.379480       15.588450
  H           43.224500       37.778270       15.203360
  H           38.708050       51.097030       15.096530
  H           25.393550       58.736260       10.199190
  H           10.970110       57.284050       19.639830
  H           19.582020       45.414950       19.352600
  H           30.282570       38.059000       15.442400
  H           44.812990       39.709860       15.009410
  H           36.240390       51.421200       14.784110
  H           21.591060       57.312050       19.135560
  H           14.366560       54.654580       19.725750
  H           20.099030       49.488910       10.327420
  H           34.209670       39.673710       14.754540
  H           41.503660       42.449780       15.154970
  H           35.654810       47.165190       14.948580
  H           24.221590       49.600250       15.525530
  H           19.574950       60.822950       15.358670
  H           12.280540       51.151580       15.228840
  H           31.670490       47.301620       19.558390
  H           36.342470       36.372450       19.703450
  H           43.728140       45.840090       19.422590
  H           32.959060       49.945860       17.433990
  H           33.392320       35.966800       17.661780
  H           45.566980       43.369730       17.537630
  H           23.017970       46.759620       17.520210
  H           22.587740       61.214440       17.237060
  H           10.556440       53.584190       17.191660
  H           30.716930       50.162390       18.372440
  H           34.433970       33.945090       18.540790
  H           46.858840       45.289240       18.318580
  H           25.280890       46.594220       16.648960
  H           21.579580       63.292360       16.457210
  H            9.209120       51.709010       16.390110
  H           29.249250       50.659940       19.544160
  H           16.141630       64.588990       19.559990
  H           10.713360       46.452170       19.568350
  H           26.716700       46.349490       15.358670
  H           39.699280       32.511470       15.317050
  H           45.104630       50.603830       15.311980
  H           28.163980       52.799600       15.217290
  H           14.748690       62.577940       15.214510
  H           12.932140       46.156660       15.313070
  H           27.610520       44.169660       19.743380
  H           41.044880       34.406190       19.544850
  H           42.805380       50.890240       19.724160
  H           29.118990       47.839400       15.123210
  H           37.036770       33.773070       15.116140
  H           45.114510       47.737490       15.243380
  H           26.692380       49.227780       19.743180
  H           18.752700       63.160210       19.696280
  H           10.485350       49.352690       19.762390
  H           26.339380       50.422230       16.379550
  H           17.826760       62.282330       16.338830
  H           11.813980       49.070730       16.336840
  H           29.564610       46.462600       18.587490
  H           37.973020       34.811210       18.519390
  H           43.909890       48.086910       18.595950
  H           25.429540       52.610990       17.042420
  H           16.428120       60.350350       16.980300
  H           14.203210       48.812920       16.932510
  H           30.450360       44.267720       17.884200
  H           39.318320       36.771310       17.844670
  H           41.551690       48.298190       17.904610
  C           23.099910       55.791700       14.792370
  C           14.759410       56.751390       14.531930
  C           18.070620       49.153100       14.533520
  C           32.636540       41.200740       10.252950
  C           41.002470       40.200700       10.133680
  C           37.671810       47.829130       10.276850
  C           25.340340       56.666380       14.420620
  C           12.844580       58.251020       14.592060
  C           17.641380       46.780870       14.862360
  C           30.392650       40.286960       10.488410
  C           42.893460       38.670160       10.119240
  C           38.048690       50.232980       10.241300
  C           24.932850       54.167980       14.445610
  C           15.189240       59.182490       14.392140
  C           15.729350       48.376940       14.390150
  C           30.766530       42.787540       10.536800
  C           40.532660       37.783820       10.360280
  C           39.985560       48.626460       10.572240
  C           24.469370       55.573630       14.568070
  C           14.232640       58.053120       14.516790
  C           17.168430       48.079490       14.613460
  C           31.254990       41.392500       10.410360
  C           41.507890       38.891190       10.185050
  C           38.547410       48.924240       10.349820
  C           24.840700       57.962340       14.492800
  C           11.993340       57.153670       14.687140
  C           19.006540       46.559920       15.014790
  C           30.914560       38.999410       10.419610
  C           43.762320       39.752990       10.022770
  C           36.681400       50.439330       10.076930
  C           22.592020       57.087910       14.813880
  C           13.905770       55.652300       14.568960
  C           19.438390       48.926050       14.647020
  C           33.163730       39.912940       10.235730
  C           41.873640       41.285850       10.086890
  C           36.300570       48.036550       10.167230
  C           22.997500       59.588640       14.632480
  C           11.549180       54.724830       14.660950
  C           21.361430       47.300410       14.924190
  C           32.797810       37.409880       10.366050
  C           44.253660       42.169500       10.080610
  C           34.344590       49.633310       10.032820
  C           23.464050       58.178050       14.660950
  C           12.517590       55.851210       14.650900
  C           19.912330       47.624740       14.882480
  C           32.301870       38.808130       10.325030
  C           43.260140       41.064340       10.042380
  C           35.800900       49.345420       10.075640
  C           24.457340       48.925870       14.706250
  C           20.007490       61.386880       14.536210
  C           11.517350       51.251040       14.461340
  C           31.308160       47.951040       10.364760
  C           35.792350       35.677180       10.515590
  C           44.331590       45.653080       10.294770
  C           28.253410       49.020850       12.409510
  C           36.486440       32.442310       12.434100
  C           46.683550       47.802190       12.410310
  C           27.442700       47.916990       12.538640
  C           19.295310       64.542810       12.499120
  C            9.059200       49.058980       12.503700
  C           31.946790       49.770440       11.830470
  C           33.978810       35.286310       12.074890
  C           45.427510       44.230400       11.920970
  C           23.738620       47.233260       13.128430
  C           21.757970       61.657090       12.882420
  C           10.274040       52.653180       12.929810
  C           30.629880       49.861280       12.276200
  C           34.568260       34.080500       12.443760
  C           46.150270       45.329180       12.383430
  C           25.042800       47.138620       12.649150
  C           21.168660       62.848680       12.467160
  C            9.530950       51.543620       12.532570
  C           26.077580       47.963240       13.138190
  C           19.965980       63.320860       13.030860
  C            9.786260       50.251180       13.038330
  C           29.626840       48.976670       11.826790
  C           35.806420       33.663380       11.913310
  C           45.960330       46.621410       11.851080
  C           28.288310       51.049730       13.946710
  C           16.191060       63.619990       13.977980
  C           11.359280       46.817860       13.979970
  C           27.394910       45.863500       11.028520
  C           39.564540       33.318670       10.909750
  C           44.335280       50.071860       10.996960
  C           27.778330       52.289500       14.339080
  C           15.379630       62.538190       14.330820
  C           12.684650       46.704800       14.408370
  C           27.908210       44.618390       10.654570
  C           40.355760       34.392910       10.494680
  C           42.994380       50.221860       10.635560
  C           27.924060       46.561020       12.128160
  C           38.762180       33.411450       12.060860
  C           44.703230       49.281850       12.100480
  C           27.763290       50.370490       12.833640
  C           17.028830       63.558350       12.850360
  C           11.030090       47.565960       12.835930
  C           28.971170       44.084610       11.373590
  C           40.326020       35.575980       11.224550
  C           42.018220       49.556330       11.368720
  C           26.722810       52.842660       13.623340
  C           15.423600       61.383480       13.559330
  C           13.683640       47.362780       13.698610
  C           29.995560       48.061590       10.816760
  C           36.367490       34.468920       10.899690
  C           45.064830       46.739040       10.767180
  C           25.756030       48.816610       14.213730
  C           19.431550       62.579300       14.104420
  C           10.763210       50.153320       14.052740
  C           32.280140       48.791810       10.898600
  C           34.612600       36.086230       11.128180
  C           44.507810       44.407440       10.889930
  C           23.451620       48.150590       14.137070
  C           21.159870       60.927080       13.906490
  C           11.281730       52.490630       13.875930
  C           26.707090       50.969510       12.129650
  C           17.041890       62.372220       12.100380
  C           12.072640       48.179100       12.122680
  C           28.983260       45.976220       12.838120
  C           38.777010       34.616060       12.782360
  C           43.684860       48.637820       12.820790
  C           26.176870       52.196670       12.516840
  C           16.252640       61.280690       12.446850
  C           13.394990       48.093100       12.547700
  C           29.520110       44.748860       12.465860
  C           39.544720       35.702890       12.371080
  C           42.346410       48.759150       12.461680
  C           23.157180       55.836180       19.270470
  C           14.818130       56.764710       19.645610
  C           18.047640       48.889100       10.018190
  C           32.620450       41.120830       14.945000
  C           40.984460       40.355810       15.198380
  C           37.702600       47.833860       15.074720
  C           25.374250       56.678840       19.797440
  C           12.901970       58.259500       19.540670
  C           17.790460       46.631660       19.390740
  C           30.406260       40.220250       15.386350
  C           42.855530       38.799710       15.172890
  C           38.039110       50.242260       15.042970
  C           25.003270       54.199600       19.341850
  C           15.258230       59.187340       19.413340
  C           15.829230       48.238160       19.472470
  C           30.792530       42.732770       15.353190
  C           40.490830       37.943850       15.435430
  C           40.004990       48.670020       15.387240
  C           24.527510       55.604390       19.479440
  C           14.292960       58.064140       19.541670
  C           17.274100       47.917860       19.617530
  C           31.256970       41.325710       15.214310
  C           41.474520       39.040840       15.252140
  C           38.561590       48.943230       15.156060
  C           24.759830       57.889600        9.945710
  C           12.050720       57.162790       19.635650
  C           19.158140       46.403070       19.514890
  C           30.923080       38.928440       15.308390
  C           43.739150       39.869590       15.068750
  C           36.668260       50.425030       14.873610
  C           22.643560       57.128530       19.333290
  C           13.965680       55.664390       19.690610
  C           19.421900       48.671740       10.092460
  C           33.146220       39.831960       14.914330
  C           41.870770       41.427370       15.145210
  C           36.328170       48.018340       14.958540
  C           23.016160       59.618730       19.663630
  C           11.596440       54.741750       19.657650
  C           21.485000       47.156820       19.801820
  C           32.802880       37.327860       15.160450
  C           44.254260       42.285480       15.130080
  C           34.338810       49.588310       14.861170
  C           23.490440       58.205840       19.646210
  C           12.574800       55.861290       19.680450
  C           20.029180       47.463830       19.813760
  C           32.299390       38.727940       15.105590
  C           43.254270       41.186470       15.094240
  C           35.802950       49.318200       14.869230
  C           24.591730       48.801010       19.754330
  C           20.143800       61.531290       19.592840
  C           11.310230       51.330900       19.633660
  C           31.244890       48.137820       15.107180
  C           35.682630       35.436910       15.191210
  C           44.441200       45.705380       15.322530
  C           28.363730       49.018760       17.449220
  C           36.530890       32.480660       17.449620
  C           46.721330       47.914090       17.432000
  C           27.553700       47.911480       17.510950
  C           37.898350       32.353370       17.457390
  C            9.054350       49.150740       17.464160
  C           32.118310       49.474790       16.930420
  C           34.196930       35.492730       17.104150
  C           45.457860       44.330480       17.040130
  C           23.818900       47.304750       18.012530
  C           21.744640       61.637760       17.777470
  C           10.548370       52.649350       17.746410
  C           30.833810       49.596230       17.455990
  C           34.789670       34.328460       17.591590
  C           46.189480       45.432630       17.479190
  C           25.117750       47.219020       17.518620
  C           21.159930       62.824650       17.339110
  C            9.776300       51.577490       17.304860
  C           26.178570       47.947580       18.090390
  C           20.032040       63.374790       17.978280
  C            9.779650       50.347040       17.987940
  C           29.731660       48.962540       16.852760
  C           35.851270       33.700630       16.912400
  C           46.032250       46.704140       16.894970
  C           28.449590       51.092810       18.948790
  C           16.177800       63.691830       18.947690
  C           11.464680       46.922810       18.937840
  C           27.488500       45.880920       15.964890
  C           39.653270       33.409590       15.927650
  C           44.339120       50.145360       15.932530
  C           27.942850       52.339600       19.331600
  C           15.372960       62.609150       19.312680
  C           12.812030       46.761640       19.273950
  C           27.971060       44.628900       15.572820
  C           40.430530       34.506990       15.548230
  C           43.002990       50.285170       15.545040
  C           28.045960       46.567100       17.058650
  C           38.763570       33.492170       17.012850
  C           44.699110       49.352460       17.037050
  C           27.880750       50.370420       17.884800
  C           17.078540       63.596110       17.872950
  C           11.079520       47.738800       17.859410
  C           29.043350       44.070340       16.257000
  C           40.295120       35.706510       16.236980
  C           42.014360       49.610410       16.251920
  C           26.848590       52.867580       18.654490
  C           15.481740       61.414370       18.610880
  C           13.782110       47.440440       18.545670
  C           29.964960       48.272260       15.646790
  C           36.255070       34.264970       15.686920
  C           45.187190       46.793090       15.770450
  C           25.884830       48.708670       19.239600
  C           19.574350       62.721620       19.140440
  C           10.525440       50.269270       19.181460
  C           32.314850       48.725890       15.773530
  C           34.660720       36.045720       15.912220
  C           44.561330       44.489300       15.987790
  C           23.563330       48.105520       19.123720
  C           21.215120       60.987090       18.888660
  C           11.326390       52.508660       18.891540
  C           26.795900       50.954180       17.207590
  C           17.141220       62.377170       17.174940
  C           12.090620       48.417150       17.157110
  C           29.112900       45.955970       17.740140
  C           38.664710       34.721250       17.688070
  C           43.665740       48.705060       17.738340
  C           26.274800       52.189600       17.579650
  C           16.357470       61.284130       17.534050
  C           13.436070       48.281760       17.490840
  C           29.619530       44.718780       17.347270
  C           39.413980       35.830580       17.308940
  C           42.331150       48.819750       17.354440
  O           26.242160       54.111030       14.003260
  O           14.570000       60.307890       13.882600
  O           15.014510       47.220470       14.137970
  O           29.470530       42.817680       11.013390
  O           41.158310       36.640300       10.820540
  O           40.668240       49.744090       11.011600
  O           24.257200       53.180350       14.678180
  O           16.373820       59.132770       14.673800
  O           15.237320       49.492260       14.407870
  O           31.417680       43.786280       10.281820
  O           39.333560       37.867660       10.155280
  O           40.505720       47.536150       10.411150
  O           21.664100       59.665810       14.274070
  O           12.135620       53.559360       14.204970
  O           22.124330       48.385150       14.533820
  O           34.104950       37.359190       10.811880
  O           43.668230       43.351990       10.486620
  O           33.623590       48.572110       10.547350
  O           23.701380       60.555070       14.864950
  O           10.381430       54.810320       15.000050
  O           21.828620       46.217260       15.229040
  O           32.139810       36.425000       10.081510
  O           45.530230       42.126240       19.777720
  O           33.936760       50.746340       19.585870
  O           26.354520       54.133140       19.045460
  O           14.638690       60.342630       18.973780
  O           15.142560       47.213890       18.849530
  O           29.509810       42.795430       15.865830
  O           41.117650       36.785870       15.860650
  O           40.666880       49.786000       15.863440
  O           24.288120       53.219070       19.452560
  O           16.451870       59.111810       19.649590
  O           15.307150       49.276260       19.841740
  O           31.455310       43.717120       15.071040
  O           39.289390       38.042100       15.259610
  O           40.544350       47.592720       15.200070
  O           21.700380       59.712860       19.248170
  O           12.191580       53.559960       19.258820
  O           22.243670       48.292830       19.579200
  O           34.150610       37.284470       15.467690
  O           43.691300       43.439110       15.639030
  O           33.631840       48.493830       15.325620
  O           23.602010       60.504220       10.023370
  O           10.319510       54.773400        9.960150
  O           21.863760       45.963230        9.964430
  O           32.115600       36.336180       14.996470
  O           45.422090       42.187150       14.797950
  O           33.821100       50.643620       14.541180
  H           22.543070       55.004740       24.872890
  H           15.930640       56.703670       24.443390
  H           17.768840       50.227550       24.306890
  H           33.369140       42.153840       20.134840
  H           40.016820       40.420530       20.123890
  H           38.181930       46.904690       20.297520
  H           26.490180       56.570880       24.199370
  H           12.537130       59.338710       24.535780
  H           17.029260       46.033080       24.880650
  H           29.416700       40.522310       20.566730
  H           43.369570       37.731930       20.109360
  H           38.823430       51.154480       20.247450
  H           25.584530       58.903600       24.344920
  H           11.007890       57.357380       24.719070
  H           19.492210       45.640940       25.158230
  H           30.361540       38.202880       20.431130
  H           44.931250       39.688430       19.925070
  H           36.360800       51.519000       19.941600
  H           21.619090       57.340740       24.900070
  H           14.394430       54.718400       24.493470
  H           20.237670       49.821850       24.498940
  H           34.328020       39.831440       20.114530
  H           41.583410       42.380790       20.050420
  H           35.703560       47.273700       20.114140
  H           24.380780       49.392090       20.641800
  H           19.769300       61.033660       20.483700
  H           11.885930       51.249710       20.552700
  H           31.504350       47.674740       24.134950
  H           36.101720       35.942210       24.203950
  H           43.867550       45.868330       24.423480
  H           32.798920       50.508700       22.194240
  H           33.142700       35.683600       22.498290
  H           45.659530       43.332880       22.336310
  H           23.046190       46.691860       22.655990
  H           22.749560       61.372480       22.347660
  H           10.176480       53.702020       22.437460
  H           30.494770       50.692110       22.977270
  H           34.154520       33.560180       23.148710
  H           46.940610       45.242990       23.152600
  H           25.327660       46.510830       21.805260
  H           21.739800       63.469170       21.617190
  H            8.858850       51.775720       21.736660
  H           29.149300       50.659560       24.513980
  H           16.301860       64.569370       24.584160
  H           10.665960       46.459300       24.549820
  H           26.718240       46.396460       20.364330
  H           39.614460       32.507500       20.239380
  H           45.190400       50.600540       20.322910
  H           28.365840       52.870420       20.180440
  H           14.702230       62.677360       20.165110
  H           13.102590       46.144370       20.119610
  H           27.643390       44.195040       24.667400
  H           41.191490       34.524220       24.650670
  H           42.828580       50.951890       24.627870
  H           29.334010       47.497860       20.333560
  H           37.367170       34.225550       20.362040
  H           45.037000       47.777930       20.238880
  H           26.629800       49.487550       24.626880
  H           18.636520       63.021370       24.563850
  H           11.033710       49.274290       24.482710
  H           26.375160       50.540500       21.224820
  H           17.779190       62.375480       21.188280
  H           11.939770       48.833090       21.186290
  H           29.500430       46.572210       23.646210
  H           38.255620       34.792900       23.628690
  H           44.037550       48.094430       23.627300
  H           25.442840       52.717590       21.921440
  H           16.371870       60.445300       21.812820
  H           14.273940       48.674280       21.949320
  H           30.442620       44.395960       22.975480
  H           39.621670       36.711550       22.889360
  H           41.667530       48.318320       22.982050
  H           22.609070       55.066100       28.992270
  H           15.990440       56.719680       29.613720
  H           17.713310       49.949640       20.160130
  H           33.344950       42.070110       24.751520
  H           40.000310       40.589850       25.191680
  H           38.225520       46.914910       25.097300
  H           26.432950       56.498630       19.964600
  H           12.589810       59.342150       29.415600
  H           17.211350       45.900260       29.070620
  H           29.442160       40.456870       25.544420
  H           43.316420       37.855660       25.159320
  H           38.799970       51.174430       25.052490
  H           25.485470       58.813650       20.155150
  H           11.062030       57.361440       29.595800
  H           19.673940       45.492340       29.308570
  H           30.374490       38.136390       25.398360
  H           44.904900       39.787260       24.965380
  H           36.332310       51.498590       24.740080
  H           21.682980       57.389440       29.091530
  H           14.458480       54.731980       29.681720
  H           20.190950       49.566300       20.283390
  H           34.301590       39.751100       24.710510
  H           41.595580       42.527170       25.110930
  H           35.746730       47.242590       24.904550
  H           24.313510       49.677640       25.481500
  H           19.666870       60.900340       25.314630
  H           12.372460       51.228970       25.184810
  H           31.762410       47.379010       29.514360
  H           36.434390       36.449840       29.659420
  H           43.820060       45.917480       29.378560
  H           33.050980       50.023250       27.389950
  H           33.484240       36.044190       27.617750
  H           45.658890       43.447120       27.493600
  H           23.109890       46.837010       27.476170
  H           22.679660       61.291830       27.193030
  H           10.648360       53.661580       27.147630
  H           30.808850       50.239790       28.328400
  H           34.525890       34.022480       28.496760
  H           46.950760       45.366630       28.274540
  H           25.372810       46.671620       26.604930
  H           21.671500       63.369760       26.413170
  H            9.301030       51.786400       26.346070
  H           29.341170       50.737330       29.500120
  H           16.233540       64.666380       29.515950
  H           10.805280       46.529560       29.524310
  H           26.808620       46.426880       25.314630
  H           39.791200       32.588860       25.273020
  H           45.196550       50.681220       25.267940
  H           28.255900       52.876990       25.173260
  H           14.840610       62.655330       25.170470
  H           13.024060       46.234050       25.269040
  H           27.702440       44.247050       29.699340
  H           41.136800       34.483580       29.500820
  H           42.897300       50.967630       29.680130
  H           29.210900       47.916790       25.079180
  H           37.128690       33.850460       25.072110
  H           45.206430       47.814880       25.199340
  H           26.784300       49.305170       29.699140
  H           18.844610       63.237600       29.652250
  H           10.577270       49.430080       29.718360
  H           26.431300       50.499620       26.335520
  H           17.918680       62.359730       26.294800
  H           11.905900       49.148120       26.292810
  H           29.656530       46.539990       28.543450
  H           38.064940       34.888600       28.475350
  H           44.001810       48.164310       28.551920
  H           25.521460       52.688390       26.998390
  H           16.520040       60.427740       26.936260
  H           14.295130       48.890310       26.888470
  H           30.542280       44.345110       27.840160
  H           39.410230       36.848700       27.800640
  H           41.643610       48.375580       27.860570
  C           23.191830       55.869090       24.748340
  C           14.851320       56.828790       24.487890
  C           18.162540       49.230500       24.489480
  C           32.728450       41.278130       20.208920
  C           41.094390       40.278090       20.089640
  C           37.763730       47.906520       20.232810
  C           25.432250       56.743770       24.376580
  C           12.936500       58.328410       24.548020
  C           17.733300       46.858260       24.818330
  C           30.484570       40.364350       20.444370
  C           42.985380       38.747550       20.075210
  C           38.140610       50.310380       20.197270
  C           25.024770       54.245380       24.401570
  C           15.281150       59.259880       24.348110
  C           15.821270       48.454330       24.346120
  C           30.858450       42.864930       20.492760
  C           40.624580       37.861210       20.316240
  C           40.077480       48.703850       20.528200
  C           24.561290       55.651020       24.524030
  C           14.324560       58.130520       24.472760
  C           17.260350       48.156880       24.569430
  C           31.346910       41.469890       20.366320
  C           41.599810       38.968580       20.141020
  C           38.639330       49.001630       20.305790
  C           24.932620       58.039740       24.448760
  C           12.085250       57.231060       24.643100
  C           19.098460       46.637310       24.970750
  C           31.006470       39.076800       20.375580
  C           43.854230       39.830380       19.978730
  C           36.773310       50.516720       20.032890
  C           22.683940       57.165310       24.769840
  C           13.997690       55.729690       24.524930
  C           19.530310       49.003440       24.602980
  C           33.255650       39.990340       20.191690
  C           41.965560       41.363240       20.042850
  C           36.392490       48.113940       20.123200
  C           23.089420       59.666040       24.588450
  C           11.641100       54.802220       24.616920
  C           21.453350       47.377800       24.880160
  C           32.889730       37.487280       20.322020
  C           44.345580       42.246890       20.036580
  C           34.436500       49.710700       19.988790
  C           23.555970       58.255440       24.616920
  C           12.609510       55.928610       24.606860
  C           20.004250       47.702140       24.838440
  C           32.393790       38.885520       20.281000
  C           43.352060       41.141730       19.998350
  C           35.892820       49.422810       20.031600
  C           24.549250       49.003260       24.662220
  C           20.099410       61.464270       24.492170
  C           11.609270       51.328430       24.417300
  C           31.400080       48.028430       20.320720
  C           35.884260       35.754580       20.471550
  C           44.423500       45.730470       20.250730
  C           28.345330       49.098240       22.365480
  C           36.578350       32.519710       22.390070
  C           46.775470       47.879580       22.366270
  C           27.534620       47.994390       22.494610
  C           19.387230       64.620200       22.455080
  C            9.151110       49.136370       22.459660
  C           32.038710       49.847830       21.786440
  C           34.070720       35.363700       22.030860
  C           45.519430       44.307790       21.876940
  C           23.830540       47.310650       23.084400
  C           21.849890       61.734480       22.838390
  C           10.365960       52.730570       22.885780
  C           30.721800       49.938670       22.232170
  C           34.660180       34.157890       22.399730
  C           46.242190       45.406570       22.339390
  C           25.134720       47.216010       22.605120
  C           21.260570       62.926070       22.423120
  C            9.622870       51.621010       22.488530
  C           26.169500       48.040640       23.094150
  C           20.057900       63.398250       22.986830
  C            9.878180       50.328570       22.994300
  C           29.718760       49.054060       21.782760
  C           35.898330       33.740770       21.869270
  C           46.052240       46.698800       21.807050
  C           28.380230       51.127120       23.902680
  C           16.282980       63.697380       23.933940
  C           11.451200       46.895250       23.935930
  C           27.486820       45.940890       20.984490
  C           39.656460       33.396070       20.865710
  C           44.427200       50.149250       20.952930
  C           27.870250       52.366900       24.295040
  C           15.471540       62.615580       24.286780
  C           12.776560       46.782190       24.364340
  C           28.000130       44.695780       20.610540
  C           40.447680       34.470300       20.450650
  C           43.086300       50.299250       20.591520
  C           28.015980       46.638410       22.084120
  C           38.854100       33.488840       22.016820
  C           44.795150       49.359240       22.056440
  C           27.855200       50.447880       22.789600
  C           17.120750       63.635750       22.806330
  C           11.122010       47.643350       22.791890
  C           29.063090       44.162000       21.329560
  C           40.417940       35.653370       21.180520
  C           42.110130       49.633720       21.324680
  C           26.814720       52.920050       23.579310
  C           15.515520       61.460870       23.515290
  C           13.775560       47.440170       23.654580
  C           30.087480       48.138980       20.772720
  C           36.459410       34.546310       20.855660
  C           45.156750       46.816430       20.723140
  C           25.847950       48.894000       24.169700
  C           19.523470       62.656700       24.060380
  C           10.855120       50.230710       24.008710
  C           32.372060       48.869200       20.854560
  C           34.704520       36.163630       21.084150
  C           44.599720       44.484830       20.845900
  C           23.543540       48.227980       24.093040
  C           21.251790       61.004470       23.862460
  C           11.373650       52.568020       23.831890
  C           26.799010       51.046910       22.085620
  C           17.133810       62.449610       22.056350
  C           12.164560       48.256490       22.078650
  C           29.075180       46.053610       22.794080
  C           38.868930       34.693450       22.738330
  C           43.776780       48.715210       22.776760
  C           26.268790       52.274060       22.472800
  C           16.344560       61.358080       22.402810
  C           13.486910       48.170490       22.503670
  C           29.612030       44.826250       22.421830
  C           39.636640       35.780280       22.327050
  C           42.438330       48.836540       22.417650
  C           23.249100       55.913580       29.226430
  C           14.910050       56.842100       29.601570
  C           18.139560       48.966490       19.974150
  C           32.712370       41.198220       24.900960
  C           41.076380       40.433200       25.154340
  C           37.794520       47.911250       25.030690
  C           25.466160       56.756230       29.753400
  C           12.993890       58.336890       29.496640
  C           17.882380       46.709050       29.346700
  C           30.498180       40.297640       25.342310
  C           42.947450       38.877100       25.128860
  C           38.131030       50.319650       24.998930
  C           25.095180       54.276990       29.297820
  C           15.350150       59.264740       29.369300
  C           15.921150       48.315550       29.428440
  C           30.884450       42.810160       25.309160
  C           40.582750       38.021240       25.391390
  C           40.096900       48.747410       25.343210
  C           24.619420       55.681780       29.435410
  C           14.384870       58.141530       29.497630
  C           17.366010       47.995250       29.573500
  C           31.348890       41.403100       25.170270
  C           41.566440       39.118230       25.208100
  C           38.653510       49.020620       25.112030
  C           24.851740       57.966990       19.901680
  C           12.142640       57.240190       29.591620
  C           19.250060       46.480470       29.470850
  C           31.014990       39.005830       25.264360
  C           43.831070       39.946980       25.024720
  C           36.760180       50.502430       24.829580
  C           22.735480       57.205920       29.289250
  C           14.057600       55.741780       29.646570
  C           19.513820       48.749130       20.048430
  C           33.238140       39.909350       24.870300
  C           41.962690       41.504760       25.101180
  C           36.420090       48.095730       24.914500
  C           23.108080       59.696120       29.619590
  C           11.688360       54.819140       29.613620
  C           21.576920       47.234210       29.757780
  C           32.894790       37.405260       25.116410
  C           44.346180       42.362870       25.086040
  C           34.430730       49.665700       24.817130
  C           23.582360       58.283230       29.602170
  C           12.666710       55.938690       29.636420
  C           20.121100       47.541230       29.769730
  C           32.391310       38.805330       25.061550
  C           43.346190       41.263860       25.050200
  C           35.894860       49.395590       24.825200
  C           24.683650       48.878400       29.710290
  C           20.235720       61.608680       29.548810
  C           11.402140       51.408290       29.589630
  C           31.336810       48.215210       25.063150
  C           35.774550       35.514300       25.147170
  C           44.533120       45.782770       25.278490
  C           28.455650       49.096150       27.405190
  C           36.622810       32.558050       27.405590
  C           46.813250       47.991480       27.387960
  C           27.645620       47.988870       27.466910
  C           37.990260       32.430760       27.413350
  C            9.146270       49.228130       27.420120
  C           32.210230       49.552180       26.886380
  C           34.288840       35.570120       27.060110
  C           45.549780       44.407870       26.996100
  C           23.910820       47.382140       27.968500
  C           21.836560       61.715150       27.733440
  C           10.640290       52.726740       27.702370
  C           30.925730       49.673620       27.411960
  C           34.881590       34.405850       27.547560
  C           46.281400       45.510020       27.435150
  C           25.209670       47.296420       27.474580
  C           21.251850       62.902040       27.295070
  C            9.868210       51.654880       27.260830
  C           26.270490       48.024970       28.046350
  C           20.123960       63.452180       27.934250
  C            9.871570       50.424430       27.943900
  C           29.823580       49.039930       26.808730
  C           35.943190       33.778020       26.868360
  C           46.124170       46.781530       26.850940
  C           28.541510       51.170200       28.904750
  C           16.269710       63.769220       28.903660
  C           11.556600       47.000200       28.893800
  C           27.580420       45.958310       25.920850
  C           39.745190       33.486980       25.883620
  C           44.431040       50.222750       25.888500
  C           28.034770       52.416990       29.287560
  C           15.464880       62.686540       29.268650
  C           12.903950       46.839030       29.229920
  C           28.062980       44.706290       25.528790
  C           40.522450       34.584380       25.504200
  C           43.094910       50.362560       25.501010
  C           28.137880       46.644500       27.014610
  C           38.855490       33.569570       26.968820
  C           44.791030       49.429860       26.993010
  C           27.972670       50.447810       27.840760
  C           17.170460       63.673500       27.828910
  C           11.171440       47.816190       27.815370
  C           29.135270       44.147730       26.212960
  C           40.387040       35.783900       26.192950
  C           42.106270       49.687800       26.207880
  C           26.940510       52.944970       28.610460
  C           15.573660       61.491760       28.566850
  C           13.874030       47.517830       28.501640
  C           30.056880       48.349650       25.602760
  C           36.346980       34.342370       25.642880
  C           45.279110       46.870480       25.726410
  C           25.976750       48.786060       29.195570
  C           19.666260       62.799010       29.096410
  C           10.617360       50.346660       29.137430
  C           32.406770       48.803280       25.729500
  C           34.752640       36.123120       25.868190
  C           44.653240       44.566690       25.943750
  C           23.655250       48.182920       29.079680
  C           21.307040       61.064480       28.844620
  C           11.418300       52.586050       28.847510
  C           26.887820       51.031570       27.163560
  C           17.233140       62.454560       27.130900
  C           12.182530       48.494540       27.113080
  C           29.204810       46.033370       27.696100
  C           38.756630       34.798640       27.644030
  C           43.757660       48.782450       27.694310
  C           26.366720       52.266990       27.535610
  C           16.449380       61.361520       27.490010
  C           13.527990       48.359150       27.446800
  C           29.711450       44.796170       27.303240
  C           39.505900       35.907970       27.264910
  C           42.423060       48.897140       27.310410
  O           26.334080       54.188420       23.959230
  O           14.661920       60.385280       23.838560
  O           15.106430       47.297860       24.093930
  O           29.562450       42.895070       20.969350
  O           41.250230       36.717690       20.776510
  O           40.760160       49.821480       20.967560
  O           24.349120       53.257740       24.634140
  O           16.465740       59.210160       24.629760
  O           15.329240       49.569650       24.363840
  O           31.509600       43.863670       20.237790
  O           39.425480       37.945060       20.111250
  O           40.597630       47.613540       20.367120
  O           21.756020       59.743200       24.230030
  O           12.227540       53.636750       24.160940
  O           22.216250       48.462540       24.489780
  O           34.196860       37.436580       20.767840
  O           43.760150       43.429380       20.442580
  O           33.715510       48.649500       20.503310
  O           23.793290       60.632460       24.820920
  O           10.473340       54.887710       24.956020
  O           21.920530       46.294660       25.185010
  O           32.231730       36.502390       20.037470
  O           45.622150       42.203630       29.733690
  O           34.028670       50.823730       29.541840
  O           26.446440       54.210530       29.001430
  O           14.730610       60.420020       28.929740
  O           15.234470       47.291290       28.805490
  O           29.601730       42.872830       25.821790
  O           41.209570       36.863270       25.816610
  O           40.758800       49.863390       25.819400
  O           24.380040       53.296470       29.408530
  O           16.543790       59.189200       29.605560
  O           15.399060       49.353650       29.797710
  O           31.547230       43.794510       25.027010
  O           39.381310       38.119500       25.215570
  O           40.636270       47.670110       25.156040
  O           21.792300       59.790250       29.204130
  O           12.283490       53.637350       29.214780
  O           22.335580       48.370220       29.535170
  O           34.242530       37.361860       25.423650
  O           43.783220       43.516510       25.594990
  O           33.723760       48.571220       25.281580
  O           23.693930       60.581610       19.979330
  O           10.411430       54.850790       19.916110
  O           21.955680       46.040630       19.920390
  O           32.207510       36.413570       24.952440
  O           45.514010       42.264540       24.753910
  O           33.913010       50.721010       24.497150
  H           22.634990       55.082130       34.828850
  H           16.022560       56.781060       34.399350
  H           17.860750       50.304940       34.262860
  H           33.461060       42.231230       30.090810
  H           40.108740       40.497930       30.079860
  H           38.273850       46.982080       30.253490
  H           26.582100       56.648270       34.155330
  H           12.629050       59.416100       34.491740
  H           17.121180       46.110470       34.836620
  H           29.508620       40.599700       30.522700
  H           43.461490       37.809330       30.065320
  H           38.915350       51.231880       30.203410
  H           25.676450       58.980990       34.300890
  H           11.099810       57.434770       34.675030
  H           19.584130       45.718340       35.114190
  H           30.453460       38.280270       30.387100
  H           45.023170       39.765820       29.881040
  H           36.452720       51.596390       29.897560
  H           21.711010       57.418130       34.856030
  H           14.486350       54.795800       34.449430
  H           20.329590       49.899240       34.454910
  H           34.419940       39.908830       30.070500
  H           41.675330       42.458190       30.006380
  H           35.795480       47.351090       30.070100
  H           24.472700       49.469480       30.597770
  H           19.861220       61.111050       30.439670
  H           11.977850       51.327100       30.508660
  H           31.596270       47.752130       34.090920
  H           36.193640       36.019600       34.159910
  H           43.959470       45.945720       34.379440
  H           32.890840       50.586090       32.150200
  H           33.234620       35.761000       32.454260
  H           45.751440       43.410270       32.292270
  H           23.138110       46.769250       32.611960
  H           22.841480       61.449880       32.303620
  H           10.268400       53.779410       32.393420
  H           30.586680       50.769500       32.933240
  H           34.246440       33.637570       33.104680
  H           47.032520       45.320380       33.108560
  H           25.419580       46.588220       31.761220
  H           21.831720       63.546560       31.573150
  H            8.950770       51.853110       31.692620
  H           29.241220       50.736950       34.469940
  H           16.393770       64.646760       34.540130
  H           10.757880       46.536690       34.505780
  H           26.810160       46.473850       30.320290
  H           39.706380       32.584890       30.195350
  H           45.282320       50.677940       30.278880
  H           28.457750       52.947810       30.136410
  H           14.794150       62.754750       30.121070
  H           13.194510       46.221770       30.075580
  H           27.735310       44.272430       34.623360
  H           41.283410       34.601610       34.606640
  H           42.920500       51.029280       34.583840
  H           29.425920       47.575250       30.289530
  H           37.459090       34.302940       30.318000
  H           45.128920       47.855320       30.194850
  H           26.721720       49.564940       34.582840
  H           18.728440       63.098770       34.519820
  H           11.125630       49.351680       34.438680
  H           26.467070       50.617890       31.180790
  H           17.871110       62.452870       31.144250
  H           12.031690       48.910480       31.142260
  H           29.592350       46.649600       33.602180
  H           38.347540       34.870290       33.584660
  H           44.129470       48.171820       33.583260
  H           25.534750       52.794980       31.877410
  H           16.463790       60.522690       31.768790
  H           14.365860       48.751670       31.905280
  H           30.534540       44.473350       32.931440
  H           39.713590       36.788940       32.845330
  H           41.759450       48.395710       32.938020
  H           22.700990       55.143490       38.948230
  H           16.082360       56.797070       39.569680
  H           17.805230       50.027040       30.116100
  H           33.436860       42.147510       34.707490
  H           40.092230       40.667250       35.147640
  H           38.317440       46.992310       35.053260
  H           26.524870       56.576020       29.920560
  H           12.681730       59.419540       39.371560
  H           17.303260       45.977650       39.026590
  H           29.534080       40.534260       35.500380
  H           43.408340       37.933050       35.115290
  H           38.891890       51.251820       35.008460
  H           25.577390       58.891040       30.111120
  H           11.153940       57.438830       39.551760
  H           19.765850       45.569730       39.264530
  H           30.466400       38.213780       35.354330
  H           44.996820       39.864650       34.921340
  H           36.424220       51.575980       34.696040
  H           21.774900       57.466830       39.047490
  H           14.550400       54.809370       39.637680
  H           20.282870       49.643690       30.239350
  H           34.393510       39.828490       34.666470
  H           41.687500       42.604560       35.066900
  H           35.838650       47.319980       34.860510
  H           24.405430       49.755030       35.437460
  H           19.758790       60.977730       35.270600
  H           12.464380       51.306360       35.140770
  H           31.854330       47.456400       39.470320
  H           36.526310       36.527230       39.615380
  H           43.911980       45.994880       39.334520
  H           33.142900       50.100650       37.345920
  H           33.576150       36.121580       37.573710
  H           45.750810       43.524510       37.449560
  H           23.201810       46.914400       37.432140
  H           22.771570       61.369220       37.148990
  H           10.740280       53.738970       37.103590
  H           30.900760       50.317180       38.284370
  H           34.617810       34.099880       38.452720
  H           47.042680       45.444020       38.230510
  H           25.464730       46.749010       36.560890
  H           21.763410       63.447150       36.369140
  H            9.392950       51.863790       36.302040
  H           29.433090       50.814720       39.456090
  H           16.325460       64.743770       39.471920
  H           10.897200       46.606950       39.480280
  H           26.900540       46.504270       35.270600
  H           39.883120       32.666250       35.228980
  H           45.288460       50.758610       35.223910
  H           28.347810       52.954380       35.129220
  H           14.932530       62.732720       35.126440
  H           13.115980       46.311440       35.225000
  H           27.794360       44.324440       39.655310
  H           41.228720       34.560970       39.456780
  H           42.989210       51.045020       39.636090
  H           29.302820       47.994180       35.035140
  H           37.220610       33.927850       35.028070
  H           45.298340       47.892270       35.155310
  H           26.876210       49.382560       39.655110
  H           18.936530       63.314990       39.608210
  H           10.669190       49.507480       39.674320
  H           26.523220       50.577010       36.291480
  H           18.010590       62.437120       36.250760
  H           11.997810       49.225510       36.248770
  H           29.748450       46.617380       38.499420
  H           38.156850       34.966000       38.431320
  H           44.093730       48.241700       38.507880
  H           25.613370       52.765780       36.954350
  H           16.611960       60.505130       36.892230
  H           14.387050       48.967710       36.844440
  H           30.634200       44.422510       37.796130
  H           39.502150       36.926100       37.756600
  H           41.735530       48.452980       37.816540
  C           23.283740       55.946490       34.704300
  C           14.943240       56.906180       34.443860
  C           18.254460       49.307890       34.445450
  C           32.820370       41.355520       30.164880
  C           41.186310       40.355480       30.045610
  C           37.855650       47.983910       30.188780
  C           25.524170       56.821170       34.332550
  C           13.028420       58.405800       34.503990
  C           17.825220       46.935650       34.774290
  C           30.576490       40.441740       30.400340
  C           43.077300       38.824940       30.031170
  C           38.232530       50.387770       30.153230
  C           25.116690       54.322770       34.357540
  C           15.373070       59.337270       34.304070
  C           15.913190       48.531730       34.302080
  C           30.950360       42.942320       30.448730
  C           40.716500       37.938600       30.272210
  C           40.169390       48.781250       30.484170
  C           24.653200       55.728410       34.480000
  C           14.416480       58.207910       34.428720
  C           17.352270       48.234270       34.525390
  C           31.438820       41.547280       30.322280
  C           41.691730       39.045970       30.096980
  C           38.731250       49.079020       30.261750
  C           25.024540       58.117130       34.404730
  C           12.177170       57.308450       34.599070
  C           19.190380       46.714700       34.926720
  C           31.098390       39.154190       30.331540
  C           43.946150       39.907770       29.934700
  C           36.865230       50.594110       29.988860
  C           22.775860       57.242700       34.725810
  C           14.089610       55.807080       34.480890
  C           19.622230       49.080830       34.558950
  C           33.347570       40.067730       30.147660
  C           42.057470       41.440640       29.998820
  C           36.484410       48.191330       30.079160
  C           23.181340       59.743430       34.544410
  C           11.733020       54.879610       34.572880
  C           21.545270       47.455190       34.836120
  C           32.981650       37.564670       30.277980
  C           44.437500       42.324280       29.992540
  C           34.528420       49.788100       29.944750
  C           23.647890       58.332830       34.572880
  C           12.701420       56.006000       34.562830
  C           20.096170       47.779530       34.794400
  C           32.485710       38.962910       30.236960
  C           43.443980       41.219120       29.954310
  C           35.984740       49.500200       29.987570
  C           24.641170       49.080650       34.618180
  C           20.191330       61.541670       34.448140
  C           11.701190       51.405820       34.373270
  C           31.492000       48.105820       30.276690
  C           35.976180       35.831970       30.427520
  C           44.515420       45.807860       30.206700
  C           28.437240       49.175640       32.321440
  C           36.670270       32.597100       32.346030
  C           46.867380       47.956970       32.322240
  C           27.626540       48.071780       32.450570
  C           19.479150       64.697590       32.411050
  C            9.243030       49.213770       32.415630
  C           32.130620       49.925230       31.742400
  C           34.162640       35.441090       31.986820
  C           45.611340       44.385180       31.832900
  C           23.922460       47.388040       33.040360
  C           21.941810       61.811880       32.794350
  C           10.457880       52.807960       32.841740
  C           30.813720       50.016060       32.188130
  C           34.752100       34.235280       32.355690
  C           46.334110       45.483960       32.295360
  C           25.226640       47.293400       32.561080
  C           21.352490       63.003460       32.379090
  C            9.714780       51.698400       32.444500
  C           26.261420       48.118030       33.050120
  C           20.149820       63.475640       32.942790
  C            9.970100       50.405960       32.950260
  C           29.810670       49.131450       31.738720
  C           35.990250       33.818160       31.825240
  C           46.144160       46.776190       31.763010
  C           28.472150       51.204510       33.858640
  C           16.374900       63.774780       33.889910
  C           11.543120       46.972640       33.891900
  C           27.578740       46.018290       30.940450
  C           39.748380       33.473460       30.821680
  C           44.519120       50.226640       30.908890
  C           27.962170       52.444290       34.251010
  C           15.563460       62.692970       34.242740
  C           12.868480       46.859580       34.320300
  C           28.092050       44.773170       30.566500
  C           40.539600       34.547690       30.406610
  C           43.178210       50.376650       30.547490
  C           28.107890       46.715800       32.040090
  C           38.946020       33.566230       31.972780
  C           44.887070       49.436630       32.012410
  C           27.947120       50.525270       32.745570
  C           17.212670       63.713140       32.762290
  C           11.213930       47.720740       32.747860
  C           29.155000       44.239390       31.285520
  C           40.509860       35.730760       31.136480
  C           42.202050       49.711110       31.280650
  C           26.906640       52.997440       33.535270
  C           15.607440       61.538260       33.471260
  C           13.867480       47.517560       33.610540
  C           30.179400       48.216370       30.728690
  C           36.551320       34.623700       30.811620
  C           45.248670       46.893820       30.679110
  C           25.939860       48.971400       34.125660
  C           19.615390       62.734090       34.016350
  C           10.947040       50.308100       33.964670
  C           32.463980       48.946590       30.810530
  C           34.796440       36.241020       31.040110
  C           44.691640       44.562220       30.801860
  C           23.635450       48.305370       34.049000
  C           21.343710       61.081870       33.818420
  C           11.465570       52.645410       33.787860
  C           26.890930       51.124300       32.041580
  C           17.225730       62.527000       32.012310
  C           12.256480       48.333880       32.034610
  C           29.167100       46.131010       32.750050
  C           38.960850       34.770840       32.694290
  C           43.868700       48.792600       32.732720
  C           26.360710       52.351460       32.428770
  C           16.436480       61.435470       32.358780
  C           13.578830       48.247880       32.459630
  C           29.703940       44.903640       32.377790
  C           39.728560       35.857670       32.283010
  C           42.530250       48.913930       32.373610
  C           23.341020       55.990970       39.182400
  C           15.001970       56.919490       39.557540
  C           18.231480       49.043880       29.930120
  C           32.804280       41.275610       34.856930
  C           41.168300       40.510590       35.110310
  C           37.886440       47.988650       34.986650
  C           25.558080       56.833620       39.709370
  C           13.085810       58.414290       39.452600
  C           17.974300       46.786440       39.302660
  C           30.590100       40.375030       35.298280
  C           43.039370       38.954500       35.084820
  C           38.222950       50.397040       34.954900
  C           25.187100       54.354380       39.253780
  C           15.442070       59.342130       39.325260
  C           16.013070       48.392950       39.384400
  C           30.976370       42.887550       35.265120
  C           40.674660       38.098630       35.347360
  C           40.188820       48.824800       35.299170
  C           24.711340       55.759170       39.391370
  C           14.476790       58.218920       39.453600
  C           17.457930       48.072640       39.529460
  C           31.440810       41.480490       35.126240
  C           41.658360       39.195620       35.164070
  C           38.745420       49.098010       35.067990
  C           24.943660       58.044380       29.857640
  C           12.234560       57.317580       39.547580
  C           19.341980       46.557860       39.426820
  C           31.106910       39.083220       35.220320
  C           43.922990       40.024370       34.980680
  C           36.852100       50.579820       34.785540
  C           22.827400       57.283310       39.245220
  C           14.149520       55.819170       39.602540
  C           19.605740       48.826520       30.004390
  C           33.330060       39.986740       34.826260
  C           42.054610       41.582160       35.057140
  C           36.512010       48.173120       34.870470
  C           23.199990       59.773510       39.575560
  C           11.780280       54.896530       39.569580
  C           21.668840       47.311600       39.713750
  C           32.986710       37.482650       35.072380
  C           44.438100       42.440260       35.042010
  C           34.522650       49.743090       34.773100
  C           23.674280       58.360620       39.558130
  C           12.758630       56.016080       39.592380
  C           20.213020       47.618620       39.725690
  C           32.483230       38.882720       35.017520
  C           43.438110       41.341250       35.006170
  C           35.986780       49.472990       34.781160
  C           24.775570       48.955790       39.666260
  C           20.327640       61.686070       39.504770
  C           11.494060       51.485680       39.545590
  C           31.428720       48.292600       35.019110
  C           35.866460       35.591690       35.103140
  C           44.625030       45.860160       35.234460
  C           28.547560       49.173540       37.361150
  C           36.714730       32.635440       37.361550
  C           46.905170       48.068870       37.343930
  C           27.737530       48.066260       37.422880
  C           38.082180       32.508150       37.369320
  C            9.238190       49.305520       37.376090
  C           32.302140       49.629570       36.842350
  C           34.380760       35.647510       37.016080
  C           45.641690       44.485260       36.952060
  C           24.002740       47.459540       37.924460
  C           21.928480       61.792540       37.689400
  C           10.732210       52.804130       37.658340
  C           31.017650       49.751010       37.367920
  C           34.973510       34.483240       37.503520
  C           46.373320       45.587410       37.391120
  C           25.301590       47.373810       37.430550
  C           21.343770       62.979430       37.251040
  C            9.960130       51.732270       37.216790
  C           26.362410       48.102360       38.002320
  C           20.215870       63.529580       37.890210
  C            9.963480       50.501820       37.899870
  C           29.915500       49.117320       36.764690
  C           36.035110       33.855410       36.824330
  C           46.216090       46.858920       36.806900
  C           28.633430       51.247590       38.860720
  C           16.361630       63.846610       38.859620
  C           11.648520       47.077590       38.849770
  C           27.672340       46.035700       35.876820
  C           39.837110       33.564370       35.839580
  C           44.522950       50.300150       35.844460
  C           28.126690       52.494380       39.243530
  C           15.556790       62.763930       39.224610
  C           12.995870       46.916430       39.185880
  C           28.154900       44.783680       35.484750
  C           40.614370       34.661770       35.460160
  C           43.186820       50.439960       35.456970
  C           28.229800       46.721890       36.970580
  C           38.947410       33.646960       36.924780
  C           44.882950       49.507250       36.948980
  C           28.064590       50.525200       37.796730
  C           17.262370       63.750890       37.784880
  C           11.263360       47.893580       37.771340
  C           29.227190       44.225120       36.168930
  C           40.478960       35.861290       36.148910
  C           42.198190       49.765190       36.163850
  C           27.032430       53.022360       38.566420
  C           15.665570       61.569150       38.522810
  C           13.965950       47.595220       38.457600
  C           30.148800       48.427040       35.558720
  C           36.438900       34.419760       35.598850
  C           45.371020       46.947870       35.682380
  C           26.068670       48.863450       39.151530
  C           19.758180       62.876400       39.052370
  C           10.709280       50.424050       39.093390
  C           32.498680       48.880680       35.685460
  C           34.844560       36.200510       35.824150
  C           44.745160       44.644080       35.899720
  C           23.747170       48.260310       39.035650
  C           21.398960       61.141870       38.800590
  C           11.510220       52.663440       38.803470
  C           26.979740       51.108960       37.119520
  C           17.325060       62.531950       37.086870
  C           12.274450       48.571930       37.069040
  C           29.296730       46.110760       37.652070
  C           38.848550       34.876030       37.600000
  C           43.849580       48.859840       37.650270
  C           26.458640       52.344390       37.491580
  C           16.541300       61.438910       37.445980
  C           13.619910       48.436540       37.402770
  C           29.803370       44.873560       37.259200
  C           39.597820       35.985360       37.220870
  C           42.514980       48.974530       37.266370
  O           26.426000       54.265810       33.915190
  O           14.753840       60.462670       33.794530
  O           15.198340       47.375250       34.049900
  O           29.654370       42.972460       30.925320
  O           41.342150       36.795090       30.732470
  O           40.852080       49.898870       30.923530
  O           24.441040       53.335130       34.590110
  O           16.557660       59.287550       34.585730
  O           15.421160       49.647040       34.319800
  O           31.601520       43.941070       30.193750
  O           39.517400       38.022450       30.067210
  O           40.689550       47.690930       30.323080
  O           21.847940       59.820600       34.186000
  O           12.319460       53.714140       34.116900
  O           22.308170       48.539930       34.445750
  O           34.288780       37.513970       30.723810
  O           43.852070       43.506770       30.398550
  O           33.807430       48.726890       30.459280
  O           23.885210       60.709850       34.776880
  O           10.565260       54.965100       34.911980
  O           22.012450       46.372050       35.140970
  O           32.323650       36.579780       29.993440
  O           45.714070       42.281020       39.689650
  O           34.120590       50.901120       39.497800
  O           26.538360       54.287920       38.957390
  O           14.822530       60.497410       38.885710
  O           15.326390       47.368680       38.761460
  O           29.693650       42.950220       35.777760
  O           41.301490       36.940660       35.772580
  O           40.850720       49.940780       35.775370
  O           24.471950       53.373860       39.364490
  O           16.635710       59.266590       39.561520
  O           15.490980       49.431040       39.753670
  O           31.639140       43.871900       34.982970
  O           39.473230       38.196890       35.171540
  O           40.728190       47.747500       35.112000
  O           21.884210       59.867640       39.160100
  O           12.375410       53.714740       39.170750
  O           22.427500       48.447620       39.491130
  O           34.334440       37.439250       35.379620
  O           43.875140       43.593900       35.550960
  O           33.815680       48.648610       35.237540
  O           23.785840       60.659000       29.935300
  O           10.503350       54.928180       29.872080
  O           22.047600       46.118020       29.876360
  O           32.299430       36.490960       34.908400
  O           45.605920       42.341930       34.709880
  O           34.004930       50.798400       34.453110
  H           22.726910       55.159530       44.784820
  H           16.114480       56.858450       44.355320
  H           17.952670       50.382330       44.218820
  H           33.552980       42.308620       40.046770
  H           40.200660       40.575320       40.035820
  H           38.365770       47.059470       40.209450
  H           26.674020       56.725660       44.111300
  H           12.720970       59.493500       44.447710
  H           17.213100       46.187860       44.792580
  H           29.600540       40.677090       40.478660
  H           43.553410       37.886720       40.021290
  H           39.007270       51.309270       40.159380
  H           25.768370       59.058390       44.256850
  H           11.191730       57.512170       44.631000
  H           19.676040       45.795730       45.070160
  H           30.545370       38.357660       40.343060
  H           45.115090       39.843210       39.837000
  H           36.544640       51.673780       39.853530
  H           21.802930       57.495520       44.812000
  H           14.578270       54.873190       44.405400
  H           20.421510       49.976630       44.410870
  H           34.511860       39.986220       40.026460
  H           41.767250       42.535580       39.962350
  H           35.887400       47.428480       40.026070
  H           24.564610       49.546870       40.553730
  H           19.953140       61.188440       40.395630
  H           12.069770       51.404490       40.464630
  H           31.688180       47.829530       44.046880
  H           36.285560       36.096990       44.115880
  H           44.051380       46.023110       44.335410
  H           32.982760       50.663480       42.106170
  H           33.326540       35.838390       42.410220
  H           45.843360       43.487660       42.248240
  H           23.230030       46.846640       42.567920
  H           22.933400       61.527270       42.259590
  H           10.360320       53.856800       42.349390
  H           30.678600       50.846890       42.889200
  H           34.338350       33.714960       43.060640
  H           47.124440       45.397770       43.064530
  H           25.511500       46.665610       41.717190
  H           21.923640       63.623950       41.529120
  H            9.042690       51.930500       41.648590
  H           29.333130       50.814340       44.425900
  H           16.485690       64.724150       44.496090
  H           10.849800       46.614080       44.461750
  H           26.902080       46.551240       40.276260
  H           39.798300       32.662280       40.151310
  H           45.374240       50.755330       40.234840
  H           28.549670       53.025200       40.092370
  H           14.886070       62.832140       40.077040
  H           13.286430       46.299160       40.031540
  H           27.827220       44.349820       44.579330
  H           41.375330       34.679010       44.562600
  H           43.012410       51.106680       44.539800
  H           29.517840       47.652640       40.245490
  H           37.551010       34.380330       40.273970
  H           45.220840       47.932710       40.150810
  H           26.813630       49.642330       44.538810
  H           18.820360       63.176160       44.475780
  H           11.217550       49.429070       44.394640
  H           26.558990       50.695280       41.136750
  H           17.963020       62.530270       41.100210
  H           12.123610       48.987880       41.098220
  H           29.684260       46.726990       43.558140
  H           38.439460       34.947680       43.540620
  H           44.221380       48.249210       43.539230
  H           25.626670       52.872370       41.833370
  H           16.555700       60.600080       41.724750
  H           14.457780       48.829060       41.861250
  H           30.626460       44.550740       42.887410
  H           39.805500       36.866330       42.801290
  H           41.851370       48.473100       42.893980
  H           22.792900       55.220890       48.904200
  H           16.174280       56.874470       49.525650
  H           17.897150       50.104430       40.072060
  H           33.528780       42.224900       44.663450
  H           40.184140       40.744640       45.103610
  H           38.409360       47.069700       45.009220
  H           26.616780       56.653410       39.876530
  H           12.773640       59.496930       49.327530
  H           17.395180       46.055040       48.982550
  H           29.626000       40.611650       45.456350
  H           43.500250       38.010440       45.071250
  H           38.983810       51.329210       44.964420
  H           25.669310       58.968430       40.067080
  H           11.245860       57.516220       49.507730
  H           19.857770       45.647120       49.220500
  H           30.558320       38.291170       45.310290
  H           45.088740       39.942040       44.877310
  H           36.516140       51.653370       44.652000
  H           21.866820       57.544220       49.003460
  H           14.642310       54.886760       49.593650
  H           20.374790       49.721090       40.195320
  H           34.485430       39.905880       44.622440
  H           41.779420       42.681950       45.022860
  H           35.930570       47.397370       44.816480
  H           24.497350       49.832420       45.393430
  H           19.850710       61.055130       45.226560
  H           12.556290       51.383760       45.096740
  H           31.946250       47.533790       49.426290
  H           36.618230       36.604620       49.571350
  H           44.003900       46.072270       49.290490
  H           33.234820       50.178040       47.301880
  H           33.668070       36.198970       47.529680
  H           45.842730       43.601900       47.405530
  H           23.293720       46.991790       47.388100
  H           22.863490       61.446610       47.104960
  H           10.832190       53.816360       47.059560
  H           30.992680       50.394570       48.240330
  H           34.709730       34.177270       48.408690
  H           47.134600       45.521410       48.186470
  H           25.556650       46.826400       46.516860
  H           21.855330       63.524540       46.325100
  H            9.484870       51.941180       46.258000
  H           29.525000       50.892110       49.412050
  H           16.417380       64.821170       49.427880
  H           10.989110       46.684350       49.436240
  H           26.992450       46.581660       45.226560
  H           39.975040       32.743650       45.184950
  H           45.380380       50.836000       45.179870
  H           28.439730       53.031770       45.085190
  H           15.024440       62.810110       45.082400
  H           13.207900       46.388840       45.180970
  H           27.886270       44.401830       49.611270
  H           41.320640       34.638370       49.412750
  H           43.081130       51.122410       49.592060
  H           29.394740       48.071570       44.991110
  H           37.312520       34.005240       44.984040
  H           45.390260       47.969660       45.111270
  H           26.968130       49.459950       49.611070
  H           19.028450       63.392390       49.564180
  H           10.761100       49.584870       49.630290
  H           26.615130       50.654410       46.247450
  H           18.102510       62.514510       46.206730
  H           12.089730       49.302900       46.204740
  H           29.840370       46.694780       48.455380
  H           38.248770       35.043390       48.387280
  H           44.185650       48.319090       48.463850
  H           25.705290       52.843170       46.910320
  H           16.703880       60.582520       46.848190
  H           14.478970       49.045100       46.800400
  H           30.726120       44.499900       47.752090
  H           39.594070       37.003490       47.712570
  H           41.827440       48.530370       47.772500
  C           23.375660       56.023880       44.660270
  C           15.035160       56.983570       44.399820
  C           18.346380       49.385280       44.401410
  C           32.912290       41.432910       40.120850
  C           41.278230       40.432870       40.001570
  C           37.947570       48.061300       40.144740
  C           25.616090       56.898560       44.288510
  C           13.120340       58.483190       44.459950
  C           17.917140       47.013040       44.730260
  C           30.668410       40.519130       40.356300
  C           43.169220       38.902330       39.987140
  C           38.324450       50.465160       40.109200
  C           25.208600       54.400160       44.313500
  C           15.464990       59.414660       44.260040
  C           16.005110       48.609120       44.258050
  C           31.042280       43.019710       40.404690
  C           40.808410       38.016000       40.228170
  C           40.261310       48.858640       40.440130
  C           24.745120       55.805800       44.435960
  C           14.508400       58.285300       44.384690
  C           17.444190       48.311670       44.481360
  C           31.530740       41.624680       40.278250
  C           41.783650       39.123360       40.052950
  C           38.823170       49.156420       40.217720
  C           25.116460       58.194520       44.360690
  C           12.269090       57.385840       44.555030
  C           19.282290       46.792090       44.882680
  C           31.190310       39.231580       40.287510
  C           44.038070       39.985170       39.890660
  C           36.957150       50.671510       39.944820
  C           22.867770       57.320090       44.681770
  C           14.181530       55.884480       44.436860
  C           19.714150       49.158220       44.514910
  C           33.439490       40.145120       40.103620
  C           42.149390       41.518030       39.954780
  C           36.576330       48.268720       40.035130
  C           23.273260       59.820820       44.500380
  C           11.824940       54.957000       44.528850
  C           21.637180       47.532590       44.792090
  C           33.073570       37.642060       40.233950
  C           44.529420       42.401670       39.948510
  C           34.620340       49.865490       39.900720
  C           23.739810       58.410220       44.528850
  C           12.793340       56.083390       44.518790
  C           20.188080       47.856920       44.750370
  C           32.577630       39.040310       40.192930
  C           43.535900       41.296510       39.910280
  C           36.076650       49.577590       39.943530
  C           24.733090       49.158040       44.574150
  C           20.283250       61.619060       44.404100
  C           11.793110       51.483210       44.329230
  C           31.583920       48.183210       40.232650
  C           36.068100       35.909360       40.383480
  C           44.607340       45.885250       40.162660
  C           28.529160       49.253030       42.277410
  C           36.762190       32.674490       42.302000
  C           46.959300       48.034360       42.278200
  C           27.718460       48.149170       42.406540
  C           19.571070       64.774980       42.367010
  C            9.334950       49.291160       42.371590
  C           32.222540       50.002620       41.698370
  C           34.254560       35.518480       41.942790
  C           45.703260       44.462570       41.788870
  C           24.014370       47.465430       42.996330
  C           22.033730       61.889270       42.750320
  C           10.549800       52.885350       42.797710
  C           30.905640       50.093450       42.144100
  C           34.844020       34.312670       42.311660
  C           46.426020       45.561350       42.251320
  C           25.318550       47.370790       42.517050
  C           21.444410       63.080850       42.335050
  C            9.806700       51.775790       42.400460
  C           26.353330       48.195420       43.006080
  C           20.241740       63.553030       42.898760
  C           10.062010       50.483350       42.906230
  C           29.902590       49.208840       41.694690
  C           36.082170       33.895560       41.781200
  C           46.236080       46.853580       41.718980
  C           28.564070       51.281900       43.814610
  C           16.466820       63.852170       43.845870
  C           11.635030       47.050030       43.847860
  C           27.670660       46.095680       40.896420
  C           39.840290       33.550850       40.777640
  C           44.611030       50.304030       40.864860
  C           28.054090       52.521680       44.206970
  C           15.655380       62.770360       44.198710
  C           12.960400       46.936970       44.276270
  C           28.183960       44.850570       40.522470
  C           40.631520       34.625080       40.362580
  C           43.270130       50.454040       40.503450
  C           28.199810       46.793190       41.996050
  C           39.037930       33.643620       41.928750
  C           44.978990       49.514020       41.968370
  C           28.039040       50.602660       42.701530
  C           17.304580       63.790530       42.718260
  C           11.305850       47.798130       42.703820
  C           29.246920       44.316780       41.241490
  C           40.601770       35.808150       41.092450
  C           42.293970       49.788500       41.236610
  C           26.998560       53.074830       43.491240
  C           15.699360       61.615650       43.427220
  C           13.959400       47.594950       43.566510
  C           30.271320       48.293760       40.684650
  C           36.643240       34.701090       40.767590
  C           45.340580       46.971220       40.635070
  C           26.031780       49.048790       44.081630
  C           19.707300       62.811480       43.972310
  C           11.038960       50.385490       43.920640
  C           32.555900       49.023980       40.766490
  C           34.888350       36.318410       40.996070
  C           44.783560       44.639610       40.757830
  C           23.727370       48.382760       44.004970
  C           21.435630       61.159260       43.774390
  C           11.557490       52.722800       43.743820
  C           26.982840       51.201690       41.997550
  C           17.317650       62.604400       41.968270
  C           12.348400       48.411270       41.990580
  C           29.259020       46.208400       42.706010
  C           39.052770       34.848230       42.650260
  C           43.960620       48.869990       42.688690
  C           26.452620       52.428850       42.384730
  C           16.528400       61.512870       42.314740
  C           13.670750       48.325270       42.415600
  C           29.795860       44.981030       42.333760
  C           39.820480       35.935070       42.238980
  C           42.622170       48.991320       42.329580
  C           23.432940       56.068360       49.138360
  C           15.093880       56.996880       49.513500
  C           18.323400       49.121280       39.886080
  C           32.896200       41.353000       44.812890
  C           41.260210       40.587980       45.066270
  C           37.978360       48.066040       44.942620
  C           25.650000       56.911010       49.665330
  C           13.177720       58.491680       49.408570
  C           18.066210       46.863830       49.258630
  C           30.682010       40.452430       45.254240
  C           43.131290       39.031890       45.040790
  C           38.314860       50.474430       44.910860
  C           25.279020       54.431770       49.209750
  C           15.533990       59.419520       49.281230
  C           16.104990       48.470340       49.340370
  C           31.068290       42.964950       45.221090
  C           40.766580       38.176020       45.303320
  C           40.280740       48.902190       45.255140
  C           24.803260       55.836570       49.347340
  C           14.568710       58.296310       49.409560
  C           17.549850       48.150030       49.485430
  C           31.532730       41.557880       45.082200
  C           41.750280       39.273010       45.120030
  C           38.837340       49.175400       45.023960
  C           25.035580       58.121770       39.813610
  C           12.326480       57.394970       49.503550
  C           19.433900       46.635250       49.382780
  C           31.198830       39.160610       45.176290
  C           44.014910       40.101770       44.936650
  C           36.944020       50.657210       44.741510
  C           22.919320       57.360700       49.201180
  C           14.241440       55.896560       49.558500
  C           19.697650       48.903910       39.960360
  C           33.421980       40.064130       44.782230
  C           42.146530       41.659550       45.013110
  C           36.603920       48.250510       44.826430
  C           23.291910       59.850900       49.531520
  C           11.872200       54.973920       49.525550
  C           21.760760       47.388990       49.669710
  C           33.078630       37.560040       45.028340
  C           44.530010       42.517660       44.997970
  C           34.614570       49.820490       44.729060
  C           23.766190       58.438010       49.514100
  C           12.850550       56.093470       49.548350
  C           20.304930       47.696010       49.681660
  C           32.575150       38.960110       44.973480
  C           43.530020       41.418640       44.962130
  C           36.078700       49.550380       44.737130
  C           24.867490       49.033180       49.622220
  C           20.419560       61.763470       49.460740
  C           11.585980       51.563070       49.501560
  C           31.520640       48.369990       44.975080
  C           35.958380       35.669080       45.059100
  C           44.716950       45.937550       45.190420
  C           28.639480       49.250940       47.317120
  C           36.806640       32.712830       47.317520
  C           46.997080       48.146260       47.299890
  C           27.829450       48.143650       47.378840
  C           38.174100       32.585540       47.325280
  C            9.330110       49.382910       47.332050
  C           32.394060       49.706970       46.798310
  C           34.472680       35.724900       46.972040
  C           45.733610       44.562650       46.908030
  C           24.094660       47.536930       47.880430
  C           22.020400       61.869930       47.645370
  C           10.824130       52.881520       47.614300
  C           31.109570       49.828400       47.323890
  C           35.065420       34.560640       47.459490
  C           46.465240       45.664800       47.347080
  C           25.393500       47.451200       47.386510
  C           21.435690       63.056820       47.207000
  C           10.052050       51.809660       47.172760
  C           26.454330       48.179750       47.958280
  C           20.307790       63.606970       47.846180
  C           10.055400       50.579220       47.855830
  C           30.007420       49.194710       46.720660
  C           36.127030       33.932800       46.780290
  C           46.308010       46.936310       46.762870
  C           28.725340       51.324980       48.816680
  C           16.453550       63.924010       48.815590
  C           11.740440       47.154980       48.805730
  C           27.764260       46.113090       45.832780
  C           39.929030       33.641760       45.795550
  C           44.614870       50.377540       45.800430
  C           28.218610       52.571770       49.199490
  C           15.648710       62.841330       49.180580
  C           13.087790       46.993820       49.141850
  C           28.246820       44.861070       45.440720
  C           40.706290       34.739160       45.416130
  C           43.278740       50.517350       45.412940
  C           28.321720       46.799280       46.926540
  C           39.039320       33.724350       46.880750
  C           44.974870       49.584640       46.904940
  C           28.156510       50.602590       47.752690
  C           17.354290       63.828280       47.740840
  C           11.355270       47.970980       47.727300
  C           29.319110       44.302510       46.124890
  C           40.570880       35.938680       46.104880
  C           42.290110       49.842580       46.119810
  C           27.124350       53.099760       48.522390
  C           15.757490       61.646540       48.478780
  C           14.057870       47.672610       48.413570
  C           30.240710       48.504430       45.514690
  C           36.530820       34.497150       45.554810
  C           45.462940       47.025260       45.638340
  C           26.160590       48.940840       49.107500
  C           19.850100       62.953790       49.008340
  C           10.801190       50.501450       49.049360
  C           32.590600       48.958070       45.641430
  C           34.936470       36.277900       45.780120
  C           44.837080       44.721470       45.855680
  C           23.839090       48.337700       48.991610
  C           21.490870       61.219260       48.756550
  C           11.602140       52.740830       48.759440
  C           27.071660       51.186350       47.075490
  C           17.416980       62.609340       47.042830
  C           12.366370       48.649320       47.025010
  C           29.388650       46.188150       47.608030
  C           38.940470       34.953420       47.555960
  C           43.941500       48.937230       47.606240
  C           26.550560       52.421780       47.447540
  C           16.633220       61.516300       47.401940
  C           13.711820       48.513930       47.358730
  C           29.895290       44.950950       47.215170
  C           39.689730       36.062750       47.176840
  C           42.606900       49.051920       47.222340
  O           26.517910       54.343200       43.871160
  O           14.845750       60.540060       43.750490
  O           15.290260       47.452650       44.005860
  O           29.746280       43.049850       40.881280
  O           41.434070       36.872480       40.688440
  O           40.944000       49.976260       40.879490
  O           24.532950       53.412520       44.546070
  O           16.649570       59.364940       44.541690
  O           15.513080       49.724430       44.275770
  O           31.693440       44.018460       40.149720
  O           39.609310       38.099840       40.023180
  O           40.781470       47.768320       40.279050
  O           21.939850       59.897990       44.141960
  O           12.411370       53.791530       44.072870
  O           22.400080       48.617330       44.401710
  O           34.380700       37.591360       40.679770
  O           43.943990       43.584170       40.354510
  O           33.899350       48.804280       40.415240
  O           23.977130       60.787240       44.732850
  O           10.657180       55.042500       44.867950
  O           22.104370       46.449440       45.096940
  O           32.415570       36.657170       39.949400
  O           45.805980       42.358410       49.645620
  O           34.212510       50.978520       49.453770
  O           26.630280       54.365310       48.913360
  O           14.914450       60.574800       48.841670
  O           15.418310       47.446070       48.717420
  O           29.785570       43.027610       45.733720
  O           41.393410       37.018050       45.728540
  O           40.942640       50.018170       45.731330
  O           24.563870       53.451250       49.320460
  O           16.727620       59.343980       49.517480
  O           15.582900       49.508430       49.709640
  O           31.731060       43.949290       44.938940
  O           39.565150       38.274280       45.127500
  O           40.820110       47.824890       45.067970
  O           21.976130       59.945030       49.116060
  O           12.467330       53.792130       49.126710
  O           22.519420       48.525010       49.447100
  O           34.426360       37.516650       45.335580
  O           43.967060       43.671290       45.506920
  O           33.907590       48.726000       45.193510
  O           23.877760       60.736390       39.891260
  O           10.595260       55.005580       39.828040
  O           22.139520       46.195410       39.832320
  O           32.391350       36.568350       44.864370
  O           45.697840       42.419320       44.665840
  O           34.096850       50.875790       44.409080
  H           22.818830       55.236920       54.740780
  H           16.206400       56.935850       54.311280
  H           18.044590       50.459720       54.174790
  H           33.644890       42.386010       50.002740
  H           40.292570       40.652710       49.991790
  H           38.457680       47.136860       50.165420
  H           26.765930       56.803050       54.067260
  H           12.812880       59.570890       54.403670
  H           17.305020       46.265250       54.748550
  H           29.692450       40.754480       50.434630
  H           43.645330       37.964110       49.977250
  H           39.099180       51.386660       50.115340
  H           25.860280       59.135780       54.212820
  H           11.283650       57.589560       54.586960
  H           19.767960       45.873120       55.026120
  H           30.637290       38.435060       50.299030
  H           45.207010       39.920610       49.792970
  H           36.636560       51.751170       49.809490
  H           21.894840       57.572910       54.767960
  H           14.670190       54.950580       54.361360
  H           20.513430       50.054020       54.366840
  H           34.603770       40.063610       49.982430
  H           41.859170       42.612970       49.918310
  H           35.979320       47.505870       49.982030
  H           24.656530       49.624270       50.509700
  H           20.045060       61.265840       50.351600
  H           12.161690       51.481880       50.420590
  H           31.780100       47.906920       54.002850
  H           36.377480       36.174380       54.071840
  H           44.143300       46.100500       54.291370
  H           33.074680       50.740870       52.062130
  H           33.418450       35.915780       52.366190
  H           45.935280       43.565050       52.204200
  H           23.321950       46.924030       52.523890
  H           23.025310       61.604660       52.215550
  H           10.452230       53.934190       52.305350
  H           30.770520       50.924280       52.845170
  H           34.430270       33.792360       53.016610
  H           47.216360       45.475160       53.020490
  H           25.603420       46.743000       51.673150
  H           22.015560       63.701350       51.485080
  H            9.134610       52.007890       51.604550
  H           29.425050       50.891730       54.381870
  H           16.577610       64.801540       54.452060
  H           10.941720       46.691470       54.417710
  H           26.994000       46.628630       50.232220
  H           39.890220       32.739670       50.107280
  H           45.466160       50.832720       50.190810
  H           28.641590       53.102590       50.048340
  H           14.977990       62.909530       50.033000
  H           13.378350       46.376550       49.987510
  H           27.919140       44.427210       54.535290
  H           41.467250       34.756400       54.518570
  H           43.104330       51.184070       54.495770
  H           29.609760       47.730030       50.201460
  H           37.642920       34.457730       50.229930
  H           45.312760       48.010110       50.106780
  H           26.905550       49.719720       54.494770
  H           18.912270       63.253550       54.431750
  H           11.309470       49.506460       54.350610
  H           26.650910       50.772670       51.092720
  H           18.054940       62.607660       51.056180
  H           12.215520       49.065270       51.054190
  H           29.776180       46.804380       53.514110
  H           38.531380       35.025070       53.496590
  H           44.313300       48.326600       53.495190
  H           25.718590       52.949770       51.789340
  H           16.647620       60.677470       51.680720
  H           14.549700       48.906450       51.817210
  H           30.718380       44.628130       52.843370
  H           39.897420       36.943720       52.757260
  H           41.943280       48.550490       52.849950
  H           22.884820       55.298280       58.860160
  H           16.266200       56.951860       59.481610
  H           17.989070       50.181820       50.028030
  H           33.620700       42.302290       54.619420
  H           40.276060       40.822030       55.059570
  H           38.501280       47.147090       54.965190
  H           26.708700       56.730800       49.832490
  H           12.865560       59.574320       59.283490
  H           17.487100       46.132430       58.938520
  H           29.717920       40.689040       55.412310
  H           43.592170       38.087830       55.027220
  H           39.075720       51.406600       54.920390
  H           25.761220       59.045820       50.023050
  H           11.337780       57.593610       59.463690
  H           19.949690       45.724510       59.176460
  H           30.650240       38.368570       55.266260
  H           45.180660       40.019430       54.833270
  H           36.608060       51.730760       54.607970
  H           21.958740       57.621610       58.959420
  H           14.734230       54.964150       59.549610
  H           20.466700       49.798480       50.151280
  H           34.577350       39.983270       54.578400
  H           41.871330       42.759340       54.978830
  H           36.022480       47.474760       54.772440
  H           24.589260       49.909810       55.349390
  H           19.942620       61.132520       55.182530
  H           12.648210       51.461150       55.052700
  H           32.038170       47.611180       59.382250
  H           36.710140       36.682010       59.527310
  H           44.095810       46.149660       59.246450
  H           33.326740       50.255430       57.257850
  H           33.759990       36.276360       57.485640
  H           45.934650       43.679290       57.361490
  H           23.385640       47.069180       57.344070
  H           22.955410       61.524000       57.060920
  H           10.924110       53.893750       57.015520
  H           31.084600       50.471960       58.196300
  H           34.801640       34.254660       58.364650
  H           47.226520       45.598800       58.142440
  H           25.648560       46.903790       56.472820
  H           21.947250       63.601930       56.281070
  H            9.576790       52.018570       56.213970
  H           29.616920       50.969500       59.368020
  H           16.509300       64.898560       59.383850
  H           11.081030       46.761740       59.392210
  H           27.084370       46.659050       55.182530
  H           40.066950       32.821040       55.140910
  H           45.472300       50.913390       55.135840
  H           28.531650       53.109160       55.041150
  H           15.116360       62.887500       55.038370
  H           13.299820       46.466230       55.136930
  H           27.978190       44.479220       59.567240
  H           41.412550       34.715760       59.368710
  H           43.173050       51.199810       59.548020
  H           29.486660       48.148960       54.947070
  H           37.404440       34.082640       54.940000
  H           45.482180       48.047050       55.067240
  H           27.060050       49.537340       59.567040
  H           19.120370       63.469780       59.520140
  H           10.853020       49.662260       59.586250
  H           26.707050       50.731800       56.203410
  H           18.194430       62.591900       56.162690
  H           12.181650       49.380290       56.160700
  H           29.932280       46.772170       58.411350
  H           38.340690       35.120780       58.343250
  H           44.277560       48.396480       58.419810
  H           25.797210       52.920560       56.866280
  H           16.795800       60.659910       56.804160
  H           14.570880       49.122490       56.756370
  H           30.818030       44.577290       57.708060
  H           39.685990       37.080880       57.668530
  H           41.919360       48.607760       57.728470
  C           23.467580       56.101270       54.616230
  C           15.127080       57.060960       54.355790
  C           18.438300       49.462670       54.357380
  C           33.004210       41.510310       50.076810
  C           41.370150       40.510260       49.957540
  C           38.039490       48.138700       50.100710
  C           25.708010       56.975950       54.244480
  C           13.212260       58.560580       54.415920
  C           18.009050       47.090430       54.686220
  C           30.760330       40.596520       50.312270
  C           43.261140       38.979720       49.943100
  C           38.416360       50.542550       50.065160
  C           25.300520       54.477550       54.269470
  C           15.556910       59.492050       54.216000
  C           16.097020       48.686510       54.214010
  C           31.134200       43.097100       50.360660
  C           40.900330       38.093390       50.184140
  C           40.353230       48.936030       50.396100
  C           24.837040       55.883190       54.391930
  C           14.600310       58.362690       54.340650
  C           17.536110       48.389060       54.437320
  C           31.622660       41.702070       50.234210
  C           41.875570       39.200760       50.008910
  C           38.915080       49.233810       50.173680
  C           25.208370       58.271910       54.316660
  C           12.361010       57.463230       54.511000
  C           19.374210       46.869490       54.838650
  C           31.282230       39.308970       50.243470
  C           44.129990       40.062560       49.846630
  C           37.049070       50.748900       49.900790
  C           22.959690       57.397480       54.637740
  C           14.273440       55.961870       54.392820
  C           19.806060       49.235620       54.470880
  C           33.531410       40.222510       50.059590
  C           42.241310       41.595420       49.910750
  C           36.668250       48.346110       49.991090
  C           23.365180       59.898210       54.456340
  C           11.916850       55.034390       54.484810
  C           21.729100       47.609980       54.748050
  C           33.165490       37.719450       50.189910
  C           44.621340       42.479070       49.904470
  C           34.712260       49.942880       49.856680
  C           23.831720       58.487610       54.484810
  C           12.885260       56.160780       54.474760
  C           20.280000       47.934310       54.706330
  C           32.669550       39.117700       50.148890
  C           43.627820       41.373910       49.866240
  C           36.168570       49.654990       49.899500
  C           24.825010       49.235430       54.530110
  C           20.375160       61.696450       54.360070
  C           11.885020       51.560600       54.285200
  C           31.675830       48.260600       50.188620
  C           36.160020       35.986750       50.339450
  C           44.699260       45.962640       50.118630
  C           28.621080       49.330420       52.233370
  C           36.854110       32.751880       52.257960
  C           47.051220       48.111760       52.234170
  C           27.810370       48.226560       52.362500
  C           19.662990       64.852380       52.322980
  C            9.426870       49.368550       52.327560
  C           32.314460       50.080010       51.654330
  C           34.346480       35.595870       51.898750
  C           45.795180       44.539960       51.744830
  C           24.106290       47.542820       52.952290
  C           22.125650       61.966660       52.706280
  C           10.641720       52.962740       52.753670
  C           30.997560       50.170840       52.100060
  C           34.935930       34.390060       52.267620
  C           46.517940       45.638750       52.207290
  C           25.410470       47.448180       52.473010
  C           21.536330       63.158240       52.291020
  C            9.898620       51.853180       52.356430
  C           26.445250       48.272810       52.962050
  C           20.333660       63.630430       52.854720
  C           10.153930       50.560750       52.862190
  C           29.994510       49.286230       51.650650
  C           36.174090       33.972950       51.737170
  C           46.328000       46.930970       51.674940
  C           28.655980       51.359300       53.770570
  C           16.558740       63.929560       53.801840
  C           11.726950       47.127420       53.803830
  C           27.762580       46.173070       50.852380
  C           39.932210       33.628240       50.733610
  C           44.702950       50.381420       50.820820
  C           28.146010       52.599070       54.162940
  C           15.747300       62.847750       54.154670
  C           13.052320       47.014370       54.232230
  C           28.275880       44.927960       50.478430
  C           40.723430       34.702470       50.318540
  C           43.362050       50.531430       50.459420
  C           28.291730       46.870580       51.952020
  C           39.129850       33.721010       51.884710
  C           45.070900       49.591420       51.924340
  C           28.130960       50.680050       52.657500
  C           17.396500       63.867920       52.674220
  C           11.397760       47.875520       52.659790
  C           29.338840       44.394170       51.197450
  C           40.693690       35.885550       51.048410
  C           42.385890       49.865890       51.192580
  C           27.090480       53.152220       53.447200
  C           15.791270       61.693050       53.383190
  C           14.051310       47.672350       53.522470
  C           30.363240       48.371150       50.640620
  C           36.735160       34.778480       50.723550
  C           45.432500       47.048610       50.591040
  C           26.123700       49.126180       54.037590
  C           19.799220       62.888870       53.928280
  C           11.130880       50.462880       53.876600
  C           32.647810       49.101380       50.722460
  C           34.980270       36.395800       50.952040
  C           44.875480       44.717000       50.713790
  C           23.819290       48.460150       53.960930
  C           21.527540       61.236650       53.730350
  C           11.649400       52.800190       53.699790
  C           27.074760       51.279080       51.953510
  C           17.409560       62.681790       51.924240
  C           12.440320       48.488660       51.946540
  C           29.350940       46.285790       52.661980
  C           39.144690       34.925620       52.606220
  C           44.052530       48.947380       52.644650
  C           26.544540       52.506240       52.340700
  C           16.620320       61.590260       52.270710
  C           13.762670       48.402660       52.371560
  C           29.887780       45.058420       52.289720
  C           39.912400       36.012460       52.194940
  C           42.714090       49.068710       52.285540
  C           23.524860       56.145750       59.094330
  C           15.185800       57.074270       59.469470
  C           18.415320       49.198670       49.842050
  C           32.988120       41.430390       54.768860
  C           41.352130       40.665370       55.022240
  C           38.070280       48.143430       54.898580
  C           25.741920       56.988410       59.621300
  C           13.269640       58.569070       59.364530
  C           18.158130       46.941220       59.214590
  C           30.773930       40.529820       55.210210
  C           43.223210       39.109280       54.996750
  C           38.406780       50.551830       54.866820
  C           25.370940       54.509160       59.165710
  C           15.625900       59.496910       59.237190
  C           16.196910       48.547730       59.296330
  C           31.160200       43.042340       55.177050
  C           40.858500       38.253420       55.259290
  C           40.372660       48.979580       55.211100
  C           24.895180       55.913960       59.303300
  C           14.660630       58.373700       59.365530
  C           17.641770       48.227420       59.441390
  C           31.624650       41.635280       55.038170
  C           41.842200       39.350400       55.076000
  C           38.929260       49.252790       54.979920
  C           25.127500       58.199160       49.769570
  C           12.418390       57.472360       59.459510
  C           19.525810       46.712640       59.338750
  C           31.290750       39.238000       55.132250
  C           44.106830       40.179160       54.892610
  C           37.035940       50.734600       54.697470
  C           23.011240       57.438090       59.157150
  C           14.333350       55.973950       59.514470
  C           19.789570       48.981300       49.916320
  C           33.513900       40.141530       54.738190
  C           42.238450       41.736940       54.969070
  C           36.695840       48.327900       54.782400
  C           23.383830       59.928290       59.487490
  C           11.964110       55.051310       59.481510
  C           21.852670       47.466380       59.625680
  C           33.170550       37.637430       54.984310
  C           44.621930       42.595050       54.953940
  C           34.706490       49.897880       54.685030
  C           23.858110       58.515400       59.470060
  C           12.942470       56.170860       59.504310
  C           20.396850       47.773400       59.637620
  C           32.667070       39.037510       54.929450
  C           43.621940       41.496030       54.918100
  C           36.170620       49.627770       54.693090
  C           24.959410       49.110570       59.578190
  C           20.511480       61.840860       59.416700
  C           11.677900       51.640470       59.457520
  C           31.612560       48.447380       54.931040
  C           36.050300       35.746480       55.015070
  C           44.808870       46.014940       55.146390
  C           28.731400       49.328330       57.273080
  C           36.898560       32.790220       57.273480
  C           47.089000       48.223650       57.255860
  C           27.921370       48.221040       57.334810
  C           38.266020       32.662930       57.281250
  C            9.422030       49.460300       57.288020
  C           32.485980       49.784360       56.754280
  C           34.564600       35.802290       56.928010
  C           45.825530       44.640040       56.863990
  C           24.186570       47.614320       57.836390
  C           22.112310       61.947320       57.601330
  C           10.916040       52.958920       57.570270
  C           31.201490       49.905800       57.279850
  C           35.157340       34.638030       57.415450
  C           46.557160       45.742190       57.303050
  C           25.485420       47.528590       57.342480
  C           21.527610       63.134210       57.162970
  C           10.143970       51.887050       57.128720
  C           26.546250       48.257140       57.914250
  C           20.399710       63.684360       57.802140
  C           10.147320       50.656610       57.811800
  C           30.099340       49.272110       56.676620
  C           36.218940       34.010200       56.736260
  C           46.399920       47.013710       56.718830
  C           28.817260       51.402370       58.772650
  C           16.545470       64.001400       58.771550
  C           11.832360       47.232370       58.761700
  C           27.856170       46.190480       55.788750
  C           40.020940       33.719150       55.751510
  C           44.706790       50.454930       55.756390
  C           28.310530       52.649160       59.155460
  C           15.740630       62.918720       59.136540
  C           13.179700       47.071210       59.097810
  C           28.338730       44.938460       55.396680
  C           40.798210       34.816550       55.372090
  C           43.370660       50.594740       55.368900
  C           28.413640       46.876670       56.882510
  C           39.131240       33.801740       56.836710
  C           45.066780       49.662030       56.860910
  C           28.248420       50.679990       57.708660
  C           17.446210       63.905670       57.696810
  C           11.447190       48.048370       57.683270
  C           29.411030       44.379900       56.080860
  C           40.662800       36.016070       56.060840
  C           42.382030       49.919970       56.075780
  C           27.216270       53.177150       58.478350
  C           15.849410       61.723930       58.434740
  C           14.149780       47.750000       58.369530
  C           30.332630       48.581820       55.470650
  C           36.622740       34.574540       55.510780
  C           45.554860       47.102650       55.594310
  C           26.252510       49.018230       59.063460
  C           19.942020       63.031180       58.964300
  C           10.893110       50.578840       59.005320
  C           32.682520       49.035460       55.597390
  C           35.028390       36.355290       55.736080
  C           44.929000       44.798860       55.811650
  C           23.931000       48.415090       58.947580
  C           21.582790       61.296650       58.712520
  C           11.694060       52.818220       58.715400
  C           27.163570       51.263740       57.031450
  C           17.508890       62.686740       56.998800
  C           12.458290       48.726720       56.980970
  C           29.480570       46.265540       57.564000
  C           39.032380       35.030810       57.511930
  C           44.033410       49.014620       57.562200
  C           26.642480       52.499170       57.403510
  C           16.725140       61.593690       57.357910
  C           13.803740       48.591320       57.314700
  C           29.987210       45.028340       57.171130
  C           39.781650       36.140140       57.132800
  C           42.698820       49.129310       57.178300
  O           26.609830       54.420590       53.827120
  O           14.937670       60.617460       53.706460
  O           15.382180       47.530040       53.961830
  O           29.838200       43.127250       50.837250
  O           41.525980       36.949870       50.644400
  O           41.035920       50.053650       50.835460
  O           24.624870       53.489910       54.502040
  O           16.741490       59.442340       54.497660
  O           15.604990       49.801820       54.231730
  O           31.785360       44.095850       50.105680
  O           39.701230       38.177230       49.979140
  O           40.873390       47.845710       50.235010
  O           22.031770       59.975380       54.097930
  O           12.503290       53.868920       54.028830
  O           22.492000       48.694720       54.357680
  O           34.472620       37.668750       50.635740
  O           44.035910       43.661560       50.310480
  O           33.991270       48.881670       50.371210
  O           24.069050       60.864630       54.688810
  O           10.749100       55.119890       54.823910
  O           22.196290       46.526830       55.052900
  O           32.507480       36.734560       49.905370
  O           45.897900       42.435800       59.601580
  O           34.304430       51.055910       59.409730
  O           26.722190       54.442700       58.869320
  O           15.006360       60.652200       58.797640
  O           15.510230       47.523460       58.673390
  O           29.877490       43.105000       55.689690
  O           41.485320       37.095440       55.684510
  O           41.034560       50.095560       55.687300
  O           24.655790       53.528640       59.276420
  O           16.819540       59.421370       59.473450
  O           15.674820       49.585820       59.665600
  O           31.822980       44.026690       54.894900
  O           39.657070       38.351670       55.083470
  O           40.912030       47.902280       55.023930
  O           22.068050       60.022430       59.072030
  O           12.559250       53.869520       59.082680
  O           22.611340       48.602400       59.403060
  O           34.518280       37.594040       55.291550
  O           44.058970       43.748680       55.462890
  O           33.999510       48.803400       55.149470
  O           23.969680       60.813780       49.847230
  O           10.687180       55.082970       49.784010
  O           22.231430       46.272800       49.788290
  O           32.483270       36.645750       54.820330
  O           45.789760       42.496710       54.621810
  O           34.188770       50.953180       54.365040
  H           22.910740       55.314310       64.696750
  H           16.298310       57.013240       64.267250
  H           18.136510       50.537110       64.130750
  H           33.736810       42.463400       59.958700
  H           40.384490       40.730100       59.947750
  H           38.549600       47.214250       60.121380
  H           26.857850       56.880450       64.023230
  H           12.904800       59.648280       64.359640
  H           17.396940       46.342650       64.704510
  H           29.784370       40.831870       60.390590
  H           43.737250       38.041500       59.933220
  H           39.191100       51.464050       60.071310
  H           25.952200       59.213170       64.168780
  H           11.375570       57.666950       64.542930
  H           19.859880       45.950510       64.982090
  H           30.729210       38.512450       60.254990
  H           45.298930       39.998000       59.748930
  H           36.728470       51.828560       59.765460
  H           21.986760       57.650300       64.723930
  H           14.762110       55.027970       64.317330
  H           20.605340       50.131410       64.322800
  H           34.695690       40.141000       59.938390
  H           41.951090       42.690360       59.874280
  H           36.071240       47.583260       59.938000
  H           24.748450       49.701660       60.465660
  H           20.136980       61.343230       60.307560
  H           12.253600       51.559270       60.376560
  H           31.872020       47.984310       63.958810
  H           36.469400       36.251770       64.027810
  H           44.235220       46.177890       64.247330
  H           33.166590       50.818260       62.018090
  H           33.510370       35.993170       62.322150
  H           46.027200       43.642440       62.160170
  H           23.413860       47.001420       62.479850
  H           23.117230       61.682050       62.171520
  H           10.544150       54.011580       62.261320
  H           30.862440       51.001670       62.801130
  H           34.522190       33.869750       62.972570
  H           47.308280       45.552550       62.976460
  H           25.695340       46.820390       61.629120
  H           22.107480       63.778740       61.441050
  H            9.226530       52.085280       61.560520
  H           29.516970       50.969120       64.337830
  H           16.669530       64.878940       64.408020
  H           11.033630       46.768860       64.373680
  H           27.085910       46.706020       60.188190
  H           39.982130       32.817070       60.063240
  H           45.558070       50.910110       60.146770
  H           28.733510       53.179980       60.004300
  H           15.069910       62.986920       59.988970
  H           13.470260       46.453940       59.943470
  H           28.011060       44.504600       64.491260
  H           41.559160       34.833790       64.474530
  H           43.196250       51.261460       64.451730
  H           29.701680       47.807420       60.157420
  H           37.734840       34.535120       60.185900
  H           45.404670       48.087500       60.062740
  H           26.997470       49.797110       64.450740
  H           19.004190       63.330940       64.387710
  H           11.401380       49.583850       64.306570
  H           26.742830       50.850060       61.048680
  H           18.146860       62.685050       61.012140
  H           12.307440       49.142660       61.010150
  H           29.868100       46.881770       63.470070
  H           38.623290       35.102460       63.452550
  H           44.405220       48.404000       63.451160
  H           25.810510       53.027160       61.745300
  H           16.739540       60.754860       61.636680
  H           14.641620       48.983840       61.773180
  H           30.810290       44.705520       62.799340
  H           39.989340       37.021120       62.713220
  H           42.035200       48.627880       62.805910
  H           22.976740       55.375670       68.816130
  H           16.358110       57.029250       69.437580
  H           18.080990       50.259210       59.983990
  H           33.712620       42.379680       64.575380
  H           40.367980       40.899420       65.015540
  H           38.593190       47.224480       64.921150
  H           26.800620       56.808190       59.788460
  H           12.957480       59.651710       69.239450
  H           17.579020       46.209830       68.894480
  H           29.809830       40.766430       65.368280
  H           43.684090       38.165220       64.983180
  H           39.167640       51.483990       64.876350
  H           25.853140       59.123210       59.979010
  H           11.429700       57.671010       69.419660
  H           20.041610       45.801910       69.132430
  H           30.742160       38.445960       65.222220
  H           45.272580       40.096820       64.789240
  H           36.699980       51.808150       64.563930
  H           22.050650       57.699000       68.915390
  H           14.826150       55.041540       69.505580
  H           20.558620       49.875870       60.107250
  H           34.669260       40.060670       64.534370
  H           41.963250       42.836730       64.934790
  H           36.114400       47.552150       64.728410
  H           24.681180       49.987200       65.305360
  H           20.034540       61.209910       65.138490
  H           12.740130       51.538540       65.008670
  H           32.130080       47.688570       69.338220
  H           36.802060       36.759400       69.483280
  H           44.187730       46.227050       69.202420
  H           33.418660       50.332820       67.213810
  H           33.851910       36.353750       67.441610
  H           46.026570       43.756680       67.317460
  H           23.477560       47.146570       67.300030
  H           23.047330       61.601390       67.016890
  H           11.016030       53.971140       66.971490
  H           31.176520       50.549350       68.152260
  H           34.893560       34.332050       68.320620
  H           47.318430       45.676190       68.098400
  H           25.740480       46.981180       66.428790
  H           22.039170       63.679320       66.237030
  H            9.668710       52.095970       66.169930
  H           29.708840       51.046890       69.323980
  H           16.601220       64.975950       69.339810
  H           11.172950       46.839130       69.348170
  H           27.176290       46.736440       65.138490
  H           40.158870       32.898430       65.096880
  H           45.564220       50.990780       65.091800
  H           28.623570       53.186550       64.997120
  H           15.208280       62.964900       64.994330
  H           13.391730       46.543620       65.092900
  H           28.070110       44.556610       69.523200
  H           41.504470       34.793150       69.324680
  H           43.264970       51.277200       69.503980
  H           29.578580       48.226360       64.903030
  H           37.496360       34.160030       64.895970
  H           45.574100       48.124440       65.023200
  H           27.151970       49.614730       69.523000
  H           19.212290       63.547170       69.476110
  H           10.944940       49.739650       69.542220
  H           26.798970       50.809190       66.159380
  H           18.286350       62.669290       66.118660
  H           12.273570       49.457680       66.116670
  H           30.024200       46.849560       68.367310
  H           38.432610       35.198170       68.299210
  H           44.369480       48.473870       68.375770
  H           25.889130       52.997950       66.822250
  H           16.887710       60.737300       66.760120
  H           14.662800       49.199880       66.712330
  H           30.909950       44.654680       67.664020
  H           39.777910       37.158270       67.624500
  H           42.011280       48.685150       67.684430
  C           23.559500       56.178660       64.572200
  C           15.219000       57.138350       64.311750
  C           18.530210       49.540060       64.313340
  C           33.096130       41.587700       60.032780
  C           41.462060       40.587660       59.913500
  C           38.131400       48.216090       60.056670
  C           25.799930       57.053340       64.200440
  C           13.304170       58.637970       64.371880
  C           18.100970       47.167830       64.642190
  C           30.852240       40.673910       60.268230
  C           43.353050       39.057110       59.899070
  C           38.508280       50.619940       60.021130
  C           25.392440       54.554940       64.225430
  C           15.648830       59.569440       64.171970
  C           16.188940       48.763900       64.169980
  C           31.226120       43.174500       60.316620
  C           40.992250       38.170780       60.140100
  C           40.445150       49.013420       60.352060
  C           24.928960       55.960590       64.347890
  C           14.692230       58.440080       64.296620
  C           17.628020       48.466450       64.393290
  C           31.714580       41.779460       60.190180
  C           41.967480       39.278150       59.964880
  C           39.007000       49.311200       60.129650
  C           25.300290       58.349300       64.272620
  C           12.452930       57.540620       64.466960
  C           19.466130       46.946880       64.794610
  C           31.374150       39.386360       60.199440
  C           44.221910       40.139950       59.802590
  C           37.140990       50.826290       59.856750
  C           23.051610       57.474870       64.593700
  C           14.365360       56.039260       64.348790
  C           19.897980       49.313010       64.426840
  C           33.623320       40.299900       60.015550
  C           42.333230       41.672810       59.866710
  C           36.760160       48.423500       59.947060
  C           23.457090       59.975600       64.412310
  C           12.008770       55.111790       64.440780
  C           21.821020       47.687370       64.704020
  C           33.257400       37.796840       60.145880
  C           44.713250       42.556460       59.860440
  C           34.804180       50.020270       59.812650
  C           23.923640       58.565000       64.440780
  C           12.977180       56.238170       64.430720
  C           20.371920       48.011700       64.662300
  C           32.761460       39.195090       60.104860
  C           43.719730       41.451300       59.822210
  C           36.260490       49.732380       59.855460
  C           24.916930       49.312820       64.486080
  C           20.467080       61.773840       64.316030
  C           11.976940       51.638000       64.241160
  C           31.767750       48.337990       60.144580
  C           36.251940       36.064140       60.295410
  C           44.791180       46.040030       60.074590
  C           28.713000       49.407810       62.189340
  C           36.946030       32.829270       62.213930
  C           47.143140       48.189150       62.190130
  C           27.902290       48.303950       62.318470
  C           19.754900       64.929770       62.278940
  C            9.518790       49.445940       62.283520
  C           32.406380       50.157400       61.610300
  C           34.438400       35.673260       61.854720
  C           45.887100       44.617350       61.700800
  C           24.198210       47.620210       62.908260
  C           22.217560       62.044050       62.662250
  C           10.733630       53.040130       62.709640
  C           31.089470       50.248230       62.056030
  C           35.027850       34.467460       62.223590
  C           46.609860       45.716140       62.163250
  C           25.502390       47.525570       62.428980
  C           21.628250       63.235630       62.246980
  C            9.990540       51.930570       62.312390
  C           26.537170       48.350200       62.918010
  C           20.425570       63.707820       62.810690
  C           10.245850       50.638140       62.818160
  C           30.086430       49.363620       61.606610
  C           36.266010       34.050340       61.693130
  C           46.419920       47.008370       61.630910
  C           28.747900       51.436690       63.726540
  C           16.650650       64.006950       63.757800
  C           11.818870       47.204810       63.759790
  C           27.854500       46.250460       60.808350
  C           40.024130       33.705630       60.689570
  C           44.794870       50.458810       60.776790
  C           28.237920       52.676460       64.118900
  C           15.839220       62.925140       64.110640
  C           13.144240       47.091760       64.188200
  C           28.367800       45.005350       60.434400
  C           40.815350       34.779860       60.274510
  C           43.453970       50.608820       60.415380
  C           28.383650       46.947970       61.907980
  C           39.221770       33.798400       61.840680
  C           45.162820       49.668810       61.880300
  C           28.222880       50.757440       62.613460
  C           17.488420       63.945310       62.630190
  C           11.489680       47.952910       62.615750
  C           29.430760       44.471560       61.153420
  C           40.785610       35.962940       61.004380
  C           42.477810       49.943280       61.148540
  C           27.182400       53.229610       63.403170
  C           15.883190       61.770440       63.339150
  C           14.143230       47.749740       63.478440
  C           30.455150       48.448540       60.596580
  C           36.827080       34.855870       60.679520
  C           45.524420       47.126000       60.547000
  C           26.215620       49.203570       63.993560
  C           19.891140       62.966260       63.884240
  C           11.222800       50.540270       63.832570
  C           32.739730       49.178770       60.678420
  C           35.072190       36.473190       60.908000
  C           44.967400       44.794390       60.669760
  C           23.911210       48.537540       63.916900
  C           21.619460       61.314040       63.686320
  C           11.741320       52.877580       63.655750
  C           27.166680       51.356470       61.909480
  C           17.501480       62.759180       61.880200
  C           12.532230       48.566050       61.902510
  C           29.442850       46.363180       62.617940
  C           39.236600       35.003010       62.562190
  C           44.144450       49.024770       62.600620
  C           26.636460       52.583630       62.296660
  C           16.712230       61.667650       62.226670
  C           13.854580       48.480050       62.327530
  C           29.979700       45.135810       62.245690
  C           40.004310       36.089850       62.150910
  C           42.806000       49.146100       62.241510
  C           23.616770       56.223140       69.050290
  C           15.277720       57.151670       69.425430
  C           18.507230       49.276060       59.798010
  C           33.080040       41.507780       64.724820
  C           41.444050       40.742770       64.978200
  C           38.162190       48.220820       64.854550
  C           25.833840       57.065800       69.577260
  C           13.361560       58.646460       69.320500
  C           18.250050       47.018610       69.170560
  C           30.865850       40.607210       65.166170
  C           43.315130       39.186670       64.952720
  C           38.498700       50.629220       64.822790
  C           25.462860       54.586550       69.121680
  C           15.717820       59.574300       69.193160
  C           16.288820       48.625120       69.252300
  C           31.252120       43.119730       65.133020
  C           40.950420       38.330810       65.215250
  C           40.464580       49.056970       65.167070
  C           24.987100       55.991350       69.259270
  C           14.752550       58.451090       69.321490
  C           17.733690       48.304810       69.397360
  C           31.716560       41.712670       64.994130
  C           41.934110       39.427800       65.031960
  C           39.021180       49.330180       64.935890
  C           25.219420       58.276560       59.725530
  C           12.510310       57.549750       69.415480
  C           19.617730       46.790030       69.294710
  C           31.382670       39.315390       65.088220
  C           44.198740       40.256550       64.848580
  C           37.127850       50.811990       64.653440
  C           23.103150       57.515480       69.113110
  C           14.425270       56.051340       69.470430
  C           19.881490       49.058690       59.872290
  C           33.605810       40.218920       64.694160
  C           42.330360       41.814330       64.925040
  C           36.787760       48.405300       64.738360
  C           23.475750       60.005680       69.443450
  C           12.056030       55.128700       69.437480
  C           21.944590       47.543770       69.581640
  C           33.262470       37.714820       64.940270
  C           44.713850       42.672440       64.909900
  C           34.798400       49.975270       64.640990
  C           23.950030       58.592790       69.426030
  C           13.034390       56.248250       69.460280
  C           20.488770       47.850790       69.593590
  C           32.758980       39.114900       64.885410
  C           43.713860       41.573420       64.874060
  C           36.262540       49.705160       64.649060
  C           25.051320       49.187960       69.534150
  C           20.603390       61.918250       69.372670
  C           11.769820       51.717860       69.413490
  C           31.704480       48.524770       64.887010
  C           36.142220       35.823870       64.971030
  C           44.900790       46.092330       65.102350
  C           28.823320       49.405720       67.229050
  C           36.990480       32.867610       67.229450
  C           47.180920       48.301040       67.211820
  C           28.013290       48.298430       67.290770
  C           38.357940       32.740330       67.237210
  C            9.513940       49.537700       67.243980
  C           32.577900       49.861750       66.710240
  C           34.656520       35.879680       66.883970
  C           45.917450       44.717430       66.819960
  C           24.278490       47.691710       67.792360
  C           22.204230       62.024710       67.557300
  C           11.007960       53.036310       67.526230
  C           31.293400       49.983190       67.235820
  C           35.249260       34.715420       67.371420
  C           46.649070       45.819580       67.259010
  C           25.577340       47.605980       67.298440
  C           21.619520       63.211600       67.118930
  C           10.235890       51.964440       67.084690
  C           26.638160       48.334530       67.870210
  C           20.491630       63.761750       67.758110
  C           10.239240       50.734000       67.767760
  C           30.191250       49.349500       66.632590
  C           36.310860       34.087590       66.692220
  C           46.491840       47.091100       66.674800
  C           28.909180       51.479760       68.728610
  C           16.637390       64.078790       68.727520
  C           11.924270       47.309770       68.717660
  C           27.948090       46.267880       65.744710
  C           40.112860       33.796540       65.707480
  C           44.798710       50.532320       65.712360
  C           28.402440       52.726550       69.111420
  C           15.832550       62.996110       69.092500
  C           13.271620       47.148600       69.053780
  C           28.430650       45.015850       65.352650
  C           40.890120       34.893940       65.328050
  C           43.462580       50.672130       65.324870
  C           28.505560       46.954060       66.838470
  C           39.223160       33.879130       66.792680
  C           45.158700       49.739420       66.816870
  C           28.340340       50.757380       67.664620
  C           17.538130       63.983060       67.652770
  C           11.539110       48.125760       67.639230
  C           29.502940       44.457300       66.036820
  C           40.754710       36.093460       66.016810
  C           42.473950       49.997360       66.031740
  C           27.308180       53.254540       68.434320
  C           15.941330       61.801320       68.390710
  C           14.241700       47.827390       68.325500
  C           30.424550       48.659220       65.426620
  C           36.714660       34.651930       65.466740
  C           45.646780       47.180040       65.550270
  C           26.344420       49.095620       69.019430
  C           20.033940       63.108580       68.920270
  C           10.985030       50.656230       68.961290
  C           32.774440       49.112850       65.553360
  C           35.120310       36.432680       65.692050
  C           45.020920       44.876260       65.767610
  C           24.022920       48.492480       68.903540
  C           21.674710       61.374050       68.668480
  C           11.785980       52.895620       68.671370
  C           27.255490       51.341140       66.987420
  C           17.600810       62.764130       66.954760
  C           12.550210       48.804110       66.936940
  C           29.572490       46.342930       67.519960
  C           39.124300       35.108210       67.467890
  C           44.125330       49.092010       67.518170
  C           26.734390       52.576560       67.359470
  C           16.817060       61.671080       67.313870
  C           13.895660       48.668710       67.270660
  C           30.079120       45.105730       67.127100
  C           39.873570       36.217540       67.088770
  C           42.790740       49.206710       67.134270
  O           26.701750       54.497980       63.783090
  O           15.029590       60.694850       63.662420
  O           15.474100       47.607430       63.917790
  O           29.930120       43.204640       60.793210
  O           41.617900       37.027260       60.600370
  O           41.127830       50.131050       60.791420
  O           24.716790       53.567310       64.458000
  O           16.833410       59.519730       64.453620
  O           15.696910       49.879220       64.187700
  O           31.877270       44.173240       60.061650
  O           39.793150       38.254620       59.935110
  O           40.965310       47.923100       60.190980
  O           22.123690       60.052770       64.053890
  O           12.595210       53.946320       63.984800
  O           22.583920       48.772110       64.313640
  O           34.564540       37.746140       60.591700
  O           44.127820       43.738950       60.266440
  O           34.083180       48.959060       60.327170
  O           24.160970       60.942030       64.644780
  O           10.841020       55.197280       64.779880
  O           22.288210       46.604220       65.008870
  O           32.599400       36.811960       59.861330
  O           45.989820       42.513190       69.557550
  O           34.396350       51.133300       69.365700
  O           26.814110       54.520090       68.825290
  O           15.098280       60.729590       68.753600
  O           15.602150       47.600850       68.629350
  O           29.969400       43.182390       65.645650
  O           41.577240       37.172830       65.640470
  O           41.126470       50.172950       65.643260
  O           24.747710       53.606030       69.232390
  O           16.911460       59.498760       69.429410
  O           15.766740       49.663210       69.621560
  O           31.914900       44.104080       64.850870
  O           39.748980       38.429060       65.039430
  O           41.003940       47.979670       64.979890
  O           22.159970       60.099820       69.027990
  O           12.651170       53.946910       69.038640
  O           22.703260       48.679790       69.359030
  O           34.610200       37.671430       65.247510
  O           44.150890       43.826070       65.418850
  O           34.091430       48.880790       65.105440
  O           24.061600       60.891170       59.803190
  O           10.779100       55.160360       59.739970
  O           22.323350       46.350190       59.744250
  O           32.575190       36.723140       64.776300
  O           45.881680       42.574100       64.577770
  O           34.280690       51.030570       64.321010
